! Amtery 
! Email: info@amtery.com			
! Phone: 886-2-2883-7839
! Model Number: CP20408A-10				
! 4-port S-parameter measurement data for Bi-Directional Coupler 
! Frequency Range: 4 GHz to 8 GHz		
! Port 1: Input 
! Port 2: Output
! Port 3: Coupled Forward
! Port 4: Coupled Reverse

# Hz S dB R 50
4000000000	-2.686735e+001	-5.310794e+001	-6.256707e-001	4.286315e+001	-1.049490e+001	1.405148e+002	-4.127381e+001	1.032427e+002
	-6.112380e-001	4.284488e+001	-2.631537e+001	-5.627114e+001	-4.214877e+001	1.032607e+002	-1.058742e+001	1.421166e+002
	-1.049589e+001	1.404653e+002	-4.149571e+001	1.028451e+002	-3.823047e+001	-8.801005e+001	-6.396386e-001	5.983797e+001
	-4.121240e+001	1.076700e+002	-1.057602e+001	1.425334e+002	-6.273211e-001	6.027063e+001	-5.002702e+001	4.669405e+001
4012500000	-2.746859e+001	-5.188147e+001	-6.300026e-001	4.190221e+001	-1.048969e+001	1.395919e+002	-4.123463e+001	9.859493e+001
	-6.137094e-001	4.187101e+001	-2.600368e+001	-5.006877e+001	-4.147417e+001	9.655348e+001	-1.057346e+001	1.411847e+002
	-1.048074e+001	1.395154e+002	-4.081122e+001	9.361975e+001	-4.133183e+001	-7.461149e+001	-6.446094e-001	5.887819e+001
	-4.164897e+001	1.023523e+002	-1.056024e+001	1.415722e+002	-6.355945e-001	5.932325e+001	-4.957885e+001	7.685739e+001
4025000000	-2.773300e+001	-5.375389e+001	-6.350137e-001	4.093420e+001	-1.048627e+001	1.385716e+002	-4.125128e+001	9.593650e+001
	-6.183239e-001	4.089809e+001	-2.609518e+001	-4.789044e+001	-4.062608e+001	8.553445e+001	-1.056345e+001	1.402578e+002
	-1.047476e+001	1.385627e+002	-4.074276e+001	8.352951e+001	-4.710819e+001	-1.104499e+002	-6.530309e-001	5.793288e+001
	-4.150769e+001	9.839886e+001	-1.055801e+001	1.405959e+002	-6.411073e-001	5.839018e+001	-4.770990e+001	1.514764e+002
4037500000	-2.747042e+001	-5.693367e+001	-6.350750e-001	3.998920e+001	-1.047147e+001	1.376532e+002	-4.137431e+001	9.453644e+001
	-6.193743e-001	3.995930e+001	-2.661781e+001	-5.013511e+001	-4.062753e+001	7.911701e+001	-1.054610e+001	1.393379e+002
	-1.046186e+001	1.376468e+002	-4.132820e+001	7.827181e+001	-4.167979e+001	-1.721635e+002	-6.618027e-001	5.698484e+001
	-4.100354e+001	9.452484e+001	-1.054802e+001	1.396791e+002	-6.511246e-001	5.745604e+001	-4.225961e+001	1.761836e+002
4050000000	-2.685256e+001	-6.078013e+001	-6.353033e-001	3.902782e+001	-1.046018e+001	1.366809e+002	-4.125659e+001	9.428688e+001
	-6.191473e-001	3.899129e+001	-2.740658e+001	-5.623179e+001	-4.196718e+001	7.529404e+001	-1.053288e+001	1.383954e+002
	-1.044791e+001	1.366664e+002	-4.212341e+001	7.946770e+001	-3.652387e+001	-1.731541e+002	-6.679610e-001	5.603953e+001
	-4.074302e+001	9.391891e+001	-1.053367e+001	1.387565e+002	-6.573826e-001	5.650692e+001	-4.019111e+001	-1.677097e+002
4062500000	-2.628379e+001	-6.369257e+001	-6.358347e-001	3.806493e+001	-1.044757e+001	1.357217e+002	-4.114129e+001	9.560142e+001
	-6.152797e-001	3.804136e+001	-2.801060e+001	-6.425136e+001	-4.286883e+001	7.883347e+001	-1.052859e+001	1.374442e+002
	-1.043551e+001	1.357317e+002	-4.320859e+001	8.627533e+001	-3.475490e+001	-1.657847e+002	-6.792511e-001	5.512849e+001
	-4.040115e+001	9.361373e+001	-1.051543e+001	1.378051e+002	-6.635520e-001	5.556974e+001	-4.112071e+001	-1.465671e+002
4075000000	-2.610321e+001	-6.348125e+001	-6.322035e-001	3.710936e+001	-1.043850e+001	1.347881e+002	-4.093003e+001	9.248907e+001
	-6.151124e-001	3.705727e+001	-2.804824e+001	-6.815022e+001	-4.336846e+001	8.727425e+001	-1.050911e+001	1.365165e+002
	-1.042148e+001	1.347490e+002	-4.306511e+001	9.674126e+001	-3.474536e+001	-1.496159e+002	-6.815883e-001	5.418542e+001
	-4.040889e+001	9.418683e+001	-1.050372e+001	1.368949e+002	-6.724909e-001	5.465355e+001	-4.256901e+001	-1.046889e+002
4087500000	-2.634729e+001	-6.123615e+001	-6.308441e-001	3.614189e+001	-1.042041e+001	1.338587e+002	-4.112695e+001	9.048769e+001
	-6.168046e-001	3.606940e+001	-2.772053e+001	-6.685125e+001	-4.270685e+001	9.202289e+001	-1.049563e+001	1.354978e+002
	-1.041064e+001	1.337585e+002	-4.210469e+001	9.904670e+001	-3.506296e+001	-1.264520e+002	-6.889083e-001	5.327627e+001
	-4.070916e+001	9.433247e+001	-1.049491e+001	1.359116e+002	-6.791044e-001	5.371573e+001	-4.059949e+001	-6.480617e+001
4100000000	-2.698083e+001	-5.765339e+001	-6.300576e-001	3.514760e+001	-1.040414e+001	1.328902e+002	-4.133312e+001	8.925854e+001
	-6.140166e-001	3.509943e+001	-2.708208e+001	-6.272913e+001	-4.230503e+001	9.160886e+001	-1.048207e+001	1.346111e+002
	-1.039878e+001	1.328573e+002	-4.128281e+001	9.299851e+001	-3.508083e+001	-1.022199e+002	-6.922446e-001	5.238894e+001
	-4.125298e+001	9.343535e+001	-1.047995e+001	1.349945e+002	-6.870589e-001	5.281437e+001	-3.938492e+001	-4.736709e+001
4112500000	-2.765315e+001	-5.611737e+001	-6.308962e-001	3.417152e+001	-1.039591e+001	1.319289e+002	-4.152191e+001	8.762778e+001
	-6.138581e-001	3.412763e+001	-2.642807e+001	-5.948564e+001	-4.191983e+001	8.366451e+001	-1.047282e+001	1.336371e+002
	-1.039390e+001	1.319834e+002	-4.121004e+001	8.343041e+001	-3.588722e+001	-8.595241e+001	-7.033541e-001	5.145122e+001
	-4.187437e+001	9.178190e+001	-1.047033e+001	1.340463e+002	-6.929375e-001	5.190032e+001	-4.058390e+001	-2.994325e+001
4125000000	-2.805468e+001	-5.813800e+001	-6.336930e-001	3.320858e+001	-1.038461e+001	1.310318e+002	-4.169003e+001	8.742581e+001
	-6.192013e-001	3.314975e+001	-2.621364e+001	-5.861621e+001	-4.192996e+001	7.542616e+001	-1.046047e+001	1.326760e+002
	-1.038470e+001	1.310122e+002	-4.100420e+001	7.160756e+001	-3.811449e+001	-8.291495e+001	-7.118133e-001	5.055321e+001
	-4.156558e+001	9.117154e+001	-1.046138e+001	1.330471e+002	-7.029581e-001	5.100324e+001	-4.472147e+001	1.820406e+000
4137500000	-2.796546e+001	-6.388587e+001	-6.338619e-001	3.224143e+001	-1.038182e+001	1.301182e+002	-4.134432e+001	8.583251e+001
	-6.163480e-001	3.220770e+001	-2.643008e+001	-6.058371e+001	-4.172123e+001	6.961387e+001	-1.044753e+001	1.317129e+002
	-1.037253e+001	1.300663e+002	-4.192854e+001	6.422149e+001	-4.397808e+001	-9.830455e+001	-7.186555e-001	4.962907e+001
	-4.135967e+001	8.753667e+001	-1.044862e+001	1.321641e+002	-7.097772e-001	5.008598e+001	-4.576483e+001	5.996973e+001
4150000000	-2.725085e+001	-6.933484e+001	-6.325933e-001	3.127738e+001	-1.036459e+001	1.291296e+002	-4.075484e+001	8.579182e+001
	-6.161068e-001	3.122147e+001	-2.711595e+001	-6.484996e+001	-4.210429e+001	6.830129e+001	-1.044005e+001	1.308185e+002
	-1.035543e+001	1.291153e+002	-4.318847e+001	6.680031e+001	-4.527715e+001	-1.640454e+002	-7.290764e-001	4.874192e+001
	-4.054080e+001	8.597154e+001	-1.043958e+001	1.312156e+002	-7.185358e-001	4.917900e+001	-4.438040e+001	9.554354e+001
4162500000	-2.650774e+001	-7.259372e+001	-6.299275e-001	3.027956e+001	-1.035319e+001	1.281773e+002	-4.046612e+001	8.228401e+001
	-6.159360e-001	3.024386e+001	-2.784130e+001	-6.860157e+001	-4.228514e+001	7.155590e+001	-1.042966e+001	1.299184e+002
	-1.034084e+001	1.282240e+002	-4.336216e+001	7.697461e+001	-4.134620e+001	-1.765479e+002	-7.331530e-001	4.782246e+001
	-4.003521e+001	8.251825e+001	-1.042754e+001	1.303216e+002	-7.287114e-001	4.827422e+001	-4.877035e+001	1.269821e+002
4175000000	-2.603271e+001	-7.202632e+001	-6.260568e-001	2.931623e+001	-1.033530e+001	1.272554e+002	-4.063446e+001	7.760388e+001
	-6.116431e-001	2.928482e+001	-2.823724e+001	-7.030896e+001	-4.237478e+001	7.461862e+001	-1.041293e+001	1.289372e+002
	-1.033252e+001	1.272312e+002	-4.227138e+001	8.720516e+001	-3.991034e+001	-1.574791e+002	-7.395917e-001	4.694228e+001
	-4.006993e+001	7.981809e+001	-1.041044e+001	1.293845e+002	-7.294679e-001	4.737445e+001	-4.685695e+001	-1.262224e+002
4187500000	-2.612867e+001	-6.859358e+001	-6.257866e-001	2.829993e+001	-1.031824e+001	1.263021e+002	-4.098182e+001	7.444149e+001
	-6.068708e-001	2.826976e+001	-2.805803e+001	-6.911993e+001	-4.263282e+001	7.822763e+001	-1.040320e+001	1.279568e+002
	-1.031666e+001	1.262940e+002	-4.133103e+001	8.640016e+001	-3.760315e+001	-1.281867e+002	-7.456375e-001	4.603874e+001
	-4.067705e+001	7.604533e+001	-1.040277e+001	1.284081e+002	-7.338272e-001	4.649252e+001	-4.004081e+001	-1.032749e+002
4200000000	-2.675817e+001	-6.356362e+001	-6.237767e-001	2.730788e+001	-1.030022e+001	1.253192e+002	-4.154910e+001	7.352136e+001
	-6.135433e-001	2.728444e+001	-2.737346e+001	-6.769036e+001	-4.213194e+001	7.636463e+001	-1.040117e+001	1.270346e+002
	-1.030000e+001	1.253652e+002	-4.065246e+001	8.021597e+001	-3.537253e+001	-1.107483e+002	-7.492584e-001	4.516837e+001
	-4.188834e+001	7.750624e+001	-1.039493e+001	1.275112e+002	-7.395017e-001	4.558951e+001	-3.711182e+001	-8.985266e+001
4212500000	-2.754736e+001	-5.968025e+001	-6.286743e-001	2.633183e+001	-1.029332e+001	1.243337e+002	-4.191944e+001	7.499271e+001
	-6.145766e-001	2.632261e+001	-2.675438e+001	-6.616655e+001	-4.210184e+001	7.132102e+001	-1.038540e+001	1.261534e+002
	-1.028660e+001	1.244291e+002	-4.093439e+001	6.846337e+001	-3.436251e+001	-9.998229e+001	-7.556649e-001	4.426655e+001
	-4.244428e+001	7.949379e+001	-1.038132e+001	1.265893e+002	-7.415630e-001	4.470195e+001	-3.704962e+001	-7.797124e+001
4225000000	-2.843013e+001	-6.023347e+001	-6.288382e-001	2.534318e+001	-1.028610e+001	1.234377e+002	-4.203170e+001	7.719682e+001
	-6.181865e-001	2.533918e+001	-2.658088e+001	-6.715263e+001	-4.191629e+001	6.725195e+001	-1.036649e+001	1.251992e+002
	-1.028011e+001	1.234931e+002	-4.161497e+001	6.050061e+001	-3.537876e+001	-9.306039e+001	-7.567398e-001	4.339422e+001
	-4.210537e+001	8.129883e+001	-1.037547e+001	1.256299e+002	-7.478800e-001	4.382630e+001	-3.823189e+001	-5.568200e+001
4237500000	-2.885061e+001	-6.705028e+001	-6.305972e-001	2.437275e+001	-1.026748e+001	1.224723e+002	-4.138141e+001	7.528460e+001
	-6.167449e-001	2.434782e+001	-2.688620e+001	-6.953505e+001	-4.181944e+001	6.110863e+001	-1.036731e+001	1.242542e+002
	-1.026310e+001	1.225704e+002	-4.260746e+001	5.386554e+001	-3.799705e+001	-8.779379e+001	-7.614251e-001	4.247578e+001
	-4.100106e+001	8.041702e+001	-1.036993e+001	1.247191e+002	-7.499455e-001	4.292120e+001	-3.884875e+001	-2.717082e+001
4250000000	-2.831197e+001	-7.708753e+001	-6.285706e-001	2.338728e+001	-1.025484e+001	1.215108e+002	-4.069770e+001	7.279151e+001
	-6.158214e-001	2.334228e+001	-2.747426e+001	-7.243635e+001	-4.189158e+001	5.803282e+001	-1.035564e+001	1.233127e+002
	-1.025081e+001	1.215910e+002	-4.324413e+001	5.790961e+001	-4.246708e+001	-8.327444e+001	-7.638421e-001	4.157454e+001
	-4.003505e+001	7.332795e+001	-1.036177e+001	1.238286e+002	-7.555477e-001	4.202445e+001	-3.862465e+001	-8.455842e+000
4262500000	-2.720259e+001	-8.322203e+001	-6.299725e-001	2.239336e+001	-1.024831e+001	1.205850e+002	-4.026737e+001	6.739672e+001
	-6.151376e-001	2.235057e+001	-2.822994e+001	-7.352319e+001	-4.202087e+001	5.839954e+001	-1.033853e+001	1.224308e+002
	-1.023719e+001	1.206314e+002	-4.328236e+001	6.653736e+001	-4.478714e+001	-9.610871e+001	-7.649254e-001	4.070569e+001
	-3.981199e+001	6.702582e+001	-1.034461e+001	1.228945e+002	-7.595239e-001	4.115221e+001	-4.025993e+001	-3.992206e+000
4275000000	-2.633175e+001	-8.370519e+001	-6.268233e-001	2.139223e+001	-1.023319e+001	1.195990e+002	-4.051231e+001	6.302478e+001
	-6.123781e-001	2.134411e+001	-2.846254e+001	-7.364701e+001	-4.224309e+001	6.048310e+001	-1.032395e+001	1.214527e+002
	-1.022332e+001	1.196534e+002	-4.198849e+001	7.393876e+001	-4.206942e+001	-1.105669e+002	-7.660450e-001	3.982491e+001
	-4.008915e+001	6.422412e+001	-1.032924e+001	1.219602e+002	-7.624529e-001	4.025961e+001	-4.376591e+001	-1.924934e+001
4287500000	-2.604197e+001	-7.896999e+001	-6.285315e-001	2.035866e+001	-1.021286e+001	1.186178e+002	-4.107618e+001	6.197122e+001
	-6.155487e-001	2.034597e+001	-2.810363e+001	-7.203851e+001	-4.215698e+001	6.561074e+001	-1.031362e+001	1.205403e+002
	-1.020675e+001	1.187013e+002	-4.102543e+001	7.247655e+001	-3.826453e+001	-1.136099e+002	-7.657188e-001	3.892538e+001
	-4.094605e+001	6.293690e+001	-1.031730e+001	1.210009e+002	-7.626699e-001	3.937108e+001	-4.496110e+001	-7.492232e+001
4300000000	-2.619623e+001	-7.157331e+001	-6.298722e-001	1.938971e+001	-1.019414e+001	1.176723e+002	-4.181457e+001	6.377189e+001
	-6.139270e-001	1.935424e+001	-2.741685e+001	-7.187988e+001	-4.210857e+001	6.109814e+001	-1.030779e+001	1.196298e+002
	-1.019145e+001	1.177321e+002	-4.056634e+001	6.651885e+001	-3.574074e+001	-1.116732e+002	-7.651083e-001	3.803516e+001
	-4.190984e+001	6.612951e+001	-1.029944e+001	1.201258e+002	-7.630840e-001	3.847689e+001	-4.096821e+001	-9.830840e+001
4312500000	-2.686550e+001	-6.409938e+001	-6.330615e-001	1.838795e+001	-1.018714e+001	1.167000e+002	-4.200600e+001	6.639018e+001
	-6.186893e-001	1.836418e+001	-2.701808e+001	-7.295448e+001	-4.237833e+001	5.699884e+001	-1.029199e+001	1.187085e+002
	-1.018428e+001	1.167569e+002	-4.122309e+001	5.619972e+001	-3.464876e+001	-1.081434e+002	-7.647668e-001	3.713726e+001
	-4.250195e+001	7.097112e+001	-1.029277e+001	1.191518e+002	-7.602391e-001	3.757483e+001	-3.872249e+001	-9.385157e+001
4325000000	-2.796592e+001	-6.041801e+001	-6.392468e-001	1.738865e+001	-1.018281e+001	1.157468e+002	-4.144448e+001	6.656581e+001
	-6.251632e-001	1.737198e+001	-2.694421e+001	-7.592673e+001	-4.261243e+001	5.146465e+001	-1.027629e+001	1.177969e+002
	-1.017583e+001	1.158020e+002	-4.209142e+001	5.005412e+001	-3.509446e+001	-1.006265e+002	-7.644995e-001	3.625870e+001
	-4.179434e+001	7.013305e+001	-1.028239e+001	1.182503e+002	-7.625842e-001	3.669837e+001	-3.753513e+001	-7.853620e+001
4337500000	-2.933077e+001	-6.440385e+001	-6.431356e-001	1.640461e+001	-1.016961e+001	1.147707e+002	-4.110941e+001	6.480177e+001
	-6.280235e-001	1.640423e+001	-2.738709e+001	-7.820171e+001	-4.263647e+001	5.090865e+001	-1.026527e+001	1.168663e+002
	-1.016203e+001	1.148756e+002	-4.321780e+001	4.496365e+001	-3.622609e+001	-8.985527e+001	-7.651437e-001	3.534321e+001
	-4.112712e+001	6.832591e+001	-1.027338e+001	1.173429e+002	-7.621818e-001	3.579429e+001	-3.617890e+001	-5.894955e+001
4350000000	-3.017161e+001	-7.823244e+001	-6.456069e-001	1.538610e+001	-1.016346e+001	1.137880e+002	-4.071237e+001	5.974044e+001
	-6.299414e-001	1.540382e+001	-2.825998e+001	-7.921614e+001	-4.270888e+001	5.048504e+001	-1.025529e+001	1.159248e+002
	-1.015082e+001	1.139243e+002	-4.373059e+001	5.073275e+001	-3.723150e+001	-7.971269e+001	-7.666203e-001	3.443215e+001
	-4.052335e+001	6.306153e+001	-1.026376e+001	1.163971e+002	-7.651050e-001	3.488506e+001	-3.520433e+001	-4.821825e+001
4362500000	-2.922112e+001	-9.203446e+001	-6.496112e-001	1.441343e+001	-1.015616e+001	1.128337e+002	-4.041927e+001	5.435992e+001
	-6.369361e-001	1.440162e+001	-2.874743e+001	-7.792587e+001	-4.186935e+001	5.281688e+001	-1.023587e+001	1.150330e+002
	-1.014355e+001	1.129264e+002	-4.285919e+001	5.793502e+001	-3.793413e+001	-7.336146e+001	-7.685936e-001	3.354794e+001
	-4.043403e+001	5.614942e+001	-1.024560e+001	1.154578e+002	-7.624125e-001	3.401377e+001	-3.503176e+001	-4.031508e+001
4375000000	-2.773171e+001	-9.686715e+001	-6.551618e-001	1.338720e+001	-1.014481e+001	1.118435e+002	-4.059197e+001	5.073516e+001
	-6.393634e-001	1.339952e+001	-2.867348e+001	-7.639404e+001	-4.112727e+001	5.407205e+001	-1.022989e+001	1.141035e+002
	-1.013188e+001	1.119608e+002	-4.146842e+001	6.091569e+001	-3.780560e+001	-7.976992e+001	-7.683949e-001	3.265261e+001
	-4.032352e+001	5.311191e+001	-1.023063e+001	1.145427e+002	-7.661329e-001	3.307792e+001	-3.612086e+001	-3.754714e+001
4387500000	-2.654544e+001	-9.310247e+001	-6.582503e-001	1.237592e+001	-1.013713e+001	1.108785e+002	-4.100412e+001	4.865384e+001
	-6.469019e-001	1.239456e+001	-2.810990e+001	-7.605858e+001	-4.065498e+001	5.125989e+001	-1.021226e+001	1.131271e+002
	-1.012845e+001	1.109430e+002	-4.057673e+001	5.763092e+001	-3.686210e+001	-9.215926e+001	-7.668541e-001	3.174356e+001
	-4.080263e+001	5.200605e+001	-1.021411e+001	1.136024e+002	-7.616865e-001	3.217724e+001	-3.807229e+001	-4.381075e+001
4400000000	-2.603877e+001	-8.549732e+001	-6.636941e-001	1.141269e+001	-1.013053e+001	1.099285e+002	-4.142668e+001	4.931469e+001
	-6.445483e-001	1.140793e+001	-2.741896e+001	-7.884227e+001	-4.082207e+001	4.386588e+001	-1.020955e+001	1.121680e+002
	-1.011455e+001	1.100652e+002	-4.035866e+001	5.170787e+001	-3.582510e+001	-1.003081e+002	-7.687884e-001	3.082604e+001
	-4.164633e+001	5.319091e+001	-1.020432e+001	1.126401e+002	-7.642633e-001	3.126986e+001	-4.034895e+001	-6.167744e+001
4412500000	-2.606953e+001	-7.629285e+001	-6.722523e-001	1.042238e+001	-1.012247e+001	1.089671e+002	-4.166856e+001	5.332176e+001
	-6.571014e-001	1.045177e+001	-2.722360e+001	-8.187996e+001	-4.177409e+001	3.763348e+001	-1.019477e+001	1.112705e+002
	-1.011096e+001	1.091199e+002	-4.110835e+001	4.216080e+001	-3.480277e+001	-1.015693e+002	-7.680488e-001	2.992389e+001
	-4.207375e+001	5.656990e+001	-1.019364e+001	1.117215e+002	-7.625788e-001	3.037127e+001	-4.005582e+001	-7.620838e+001
4425000000	-2.679449e+001	-6.833950e+001	-6.731519e-001	9.493824e+000	-1.011646e+001	1.080470e+002	-4.163078e+001	5.432078e+001
	-6.626260e-001	9.537071e+000	-2.761175e+001	-8.512761e+001	-4.359789e+001	3.075240e+001	-1.018020e+001	1.103297e+002
	-1.010161e+001	1.081944e+002	-4.264128e+001	3.483510e+001	-3.457458e+001	-9.964334e+001	-7.631258e-001	2.902052e+001
	-4.197071e+001	5.836628e+001	-1.018136e+001	1.107944e+002	-7.613543e-001	2.946898e+001	-3.836630e+001	-7.985481e+001
4437500000	-2.824385e+001	-6.451790e+001	-6.862877e-001	8.497919e+000	-1.010625e+001	1.071228e+002	-4.122377e+001	5.335255e+001
	-6.644032e-001	8.544998e+000	-2.834300e+001	-8.527535e+001	-4.455718e+001	3.723130e+001	-1.016948e+001	1.093901e+002
	-1.009804e+001	1.072276e+002	-4.432142e+001	3.559425e+001	-3.484356e+001	-9.301992e+001	-7.660673e-001	2.809925e+001
	-4.154528e+001	5.515186e+001	-1.016950e+001	1.098712e+002	-7.600387e-001	2.857572e+001	-3.625421e+001	-7.474150e+001
4450000000	-3.030932e+001	-6.887704e+001	-6.926232e-001	7.547868e+000	-1.010728e+001	1.061793e+002	-4.118694e+001	4.995099e+001
	-6.753855e-001	7.613839e+000	-2.901606e+001	-8.275275e+001	-4.388205e+001	4.878018e+001	-1.015372e+001	1.085050e+002
	-1.009805e+001	1.063058e+002	-4.438306e+001	4.385878e+001	-3.531278e+001	-8.588411e+001	-7.599530e-001	2.719981e+001
	-4.090432e+001	5.121428e+001	-1.015043e+001	1.089482e+002	-7.607873e-001	2.763466e+001	-3.451235e+001	-6.738801e+001
4462500000	-3.164388e+001	-8.429892e+001	-7.019160e-001	6.567308e+000	-1.010678e+001	1.052622e+002	-4.092260e+001	4.401734e+001
	-6.836567e-001	6.611124e+000	-2.908713e+001	-7.972619e+001	-4.199003e+001	5.085278e+001	-1.013921e+001	1.075577e+002
	-1.008291e+001	1.053424e+002	-4.277557e+001	5.163734e+001	-3.566082e+001	-7.877046e+001	-7.595753e-001	2.627649e+001
	-4.056290e+001	4.692007e+001	-1.015375e+001	1.079868e+002	-7.630606e-001	2.672486e+001	-3.338414e+001	-6.222966e+001
4475000000	-3.065286e+001	-1.010242e+002	-7.088530e-001	5.609176e+000	-1.009567e+001	1.042827e+002	-4.123140e+001	3.895989e+001
	-6.875877e-001	5.632442e+000	-2.862374e+001	-8.014788e+001	-4.062346e+001	4.636373e+001	-1.012386e+001	1.065690e+002
	-1.007717e+001	1.044168e+002	-4.101460e+001	4.815348e+001	-3.577834e+001	-7.692257e+001	-7.609816e-001	2.539034e+001
	-4.031146e+001	4.189541e+001	-1.013480e+001	1.070276e+002	-7.564988e-001	2.578869e+001	-3.331110e+001	-5.843728e+001
4487500000	-2.880067e+001	-1.056803e+002	-7.160311e-001	4.639764e+000	-1.009718e+001	1.033771e+002	-4.130967e+001	3.821587e+001
	-6.948053e-001	4.664949e+000	-2.804134e+001	-8.377338e+001	-3.986453e+001	3.801383e+001	-1.011692e+001	1.056705e+002
	-1.008071e+001	1.034335e+002	-3.990224e+001	4.406824e+001	-3.547452e+001	-8.115322e+001	-7.639062e-001	2.446926e+001
	-4.084305e+001	4.028723e+001	-1.012046e+001	1.061079e+002	-7.615566e-001	2.489170e+001	-3.397276e+001	-5.689355e+001
4500000000	-2.734471e+001	-1.016994e+002	-7.169754e-001	3.693882e+000	-1.008854e+001	1.024313e+002	-4.157207e+001	3.652633e+001
	-6.946546e-001	3.746316e+000	-2.781029e+001	-8.877698e+001	-4.055478e+001	2.812412e+001	-1.010819e+001	1.047352e+002
	-1.006917e+001	1.025339e+002	-4.017073e+001	3.548144e+001	-3.476698e+001	-8.800189e+001	-7.608217e-001	2.352774e+001
	-4.149195e+001	4.413409e+001	-1.010941e+001	1.051923e+002	-7.611445e-001	2.397882e+001	-3.540581e+001	-5.797716e+001
4512500000	-2.674972e+001	-9.312679e+001	-7.237565e-001	2.751656e+000	-1.007482e+001	1.015527e+002	-4.167609e+001	3.876047e+001
	-7.010063e-001	2.801128e+000	-2.810812e+001	-9.185320e+001	-4.175347e+001	2.011212e+001	-1.009506e+001	1.037900e+002
	-1.005848e+001	1.016306e+002	-4.127366e+001	2.659908e+001	-3.372487e+001	-9.370374e+001	-7.608842e-001	2.261708e+001
	-4.220872e+001	4.605462e+001	-1.009626e+001	1.041945e+002	-7.549125e-001	2.305236e+001	-3.681280e+001	-5.915900e+001
4525000000	-2.672916e+001	-8.369080e+001	-7.231354e-001	1.822031e+000	-1.006869e+001	1.005942e+002	-4.141170e+001	4.145875e+001
	-7.036908e-001	1.832809e+000	-2.879498e+001	-9.211561e+001	-4.368486e+001	2.031189e+001	-1.008155e+001	1.028893e+002
	-1.004634e+001	1.006951e+002	-4.328003e+001	2.392348e+001	-3.327244e+001	-9.734542e+001	-7.591349e-001	2.169076e+001
	-4.232834e+001	4.755105e+001	-1.007971e+001	1.032863e+002	-7.590946e-001	2.212626e+001	-3.718559e+001	-6.324011e+001
4537500000	-2.739023e+001	-7.526619e+001	-7.249380e-001	9.102178e-001	-1.006136e+001	9.973850e+001	-4.135111e+001	4.205375e+001
	-7.014571e-001	9.155409e-001	-2.944783e+001	-8.926210e+001	-4.497119e+001	2.817407e+001	-1.006690e+001	1.019103e+002
	-1.003656e+001	9.978292e+001	-4.471618e+001	2.656666e+001	-3.322779e+001	-9.638951e+001	-7.590609e-001	2.077125e+001
	-4.175736e+001	4.485290e+001	-1.007094e+001	1.023436e+002	-7.592350e-001	2.122729e+001	-3.622752e+001	-6.832275e+001
4550000000	-2.869911e+001	-7.145941e+001	-7.293466e-001	-4.986361e-002	-1.004772e+001	9.878398e+001	-4.082962e+001	4.014603e+001
	-7.055367e-001	-6.180579e-003	-2.943724e+001	-8.529382e+001	-4.384640e+001	3.619302e+001	-1.005513e+001	1.009798e+002
	-1.002501e+001	9.888703e+001	-4.413422e+001	3.786744e+001	-3.368344e+001	-9.119984e+001	-7.590950e-001	1.986724e+001
	-4.086759e+001	3.921214e+001	-1.006552e+001	1.013543e+002	-7.547304e-001	2.030783e+001	-3.454594e+001	-7.223634e+001
4562500000	-3.072717e+001	-7.639172e+001	-7.319720e-001	-9.986753e-001	-1.004716e+001	9.788904e+001	-4.055220e+001	3.494044e+001
	-7.035449e-001	-1.006731e+000	-2.903497e+001	-8.451656e+001	-4.194103e+001	3.697051e+001	-1.005363e+001	1.000170e+002
	-1.001812e+001	9.795768e+001	-4.235993e+001	3.963653e+001	-3.396433e+001	-8.383902e+001	-7.611250e-001	1.894045e+001
	-4.011658e+001	3.161842e+001	-1.005237e+001	1.004571e+002	-7.580158e-001	1.940447e+001	-3.294665e+001	-7.376326e+001
4575000000	-3.211895e+001	-9.070236e+001	-7.353617e-001	-1.916836e+000	-1.003087e+001	9.700035e+001	-4.087417e+001	2.641987e+001
	-7.050899e-001	-1.940979e+000	-2.853369e+001	-8.693609e+001	-4.078806e+001	3.104002e+001	-1.003382e+001	9.907636e+001
	-1.000350e+001	9.701496e+001	-4.077306e+001	3.649972e+001	-3.388216e+001	-7.881967e+001	-7.636897e-001	1.801636e+001
	-4.030998e+001	2.731394e+001	-1.004128e+001	9.949519e+001	-7.556559e-001	1.847349e+001	-3.211976e+001	-7.466621e+001
4587500000	-3.167611e+001	-1.065078e+002	-7.367202e-001	-2.892409e+000	-1.002719e+001	9.602422e+001	-4.169030e+001	2.425494e+001
	-7.096835e-001	-2.881235e+000	-2.851976e+001	-9.201023e+001	-4.013179e+001	2.636471e+001	-1.002274e+001	9.817585e+001
	-9.996586e+000	9.610112e+001	-4.030708e+001	2.954571e+001	-3.346259e+001	-7.771724e+001	-7.565936e-001	1.711230e+001
	-4.099081e+001	2.573217e+001	-1.003169e+001	9.858311e+001	-7.562408e-001	1.755644e+001	-3.218695e+001	-7.368105e+001
4600000000	-3.002532e+001	-1.099007e+002	-7.394054e-001	-3.841476e+000	-1.001100e+001	9.509665e+001	-4.225898e+001	2.157094e+001
	-7.099889e-001	-3.852280e+000	-2.887314e+001	-9.618639e+001	-4.073584e+001	1.927529e+001	-1.001339e+001	9.717849e+001
	-9.982049e+000	9.515994e+001	-4.061660e+001	2.354921e+001	-3.293027e+001	-8.235955e+001	-7.602974e-001	1.616524e+001
	-4.182031e+001	3.059765e+001	-1.001854e+001	9.760483e+001	-7.564018e-001	1.664985e+001	-3.287085e+001	-7.128988e+001
4612500000	-2.871011e+001	-1.047044e+002	-7.336905e-001	-4.840116e+000	-1.000269e+001	9.422317e+001	-4.191705e+001	2.817631e+001
	-7.085533e-001	-4.818396e+000	-2.955628e+001	-9.724277e+001	-4.168888e+001	1.631021e+001	-1.000119e+001	9.624887e+001
	-9.976671e+000	9.420412e+001	-4.200363e+001	1.603433e+001	-3.246964e+001	-8.895232e+001	-7.570585e-001	1.524418e+001
	-4.213935e+001	3.686926e+001	-1.000059e+001	9.665213e+001	-7.557685e-001	1.573017e+001	-3.350690e+001	-6.701573e+001
4625000000	-2.790864e+001	-9.603920e+001	-7.316328e-001	-5.765098e+000	-9.984969e+000	9.328495e+001	-4.142192e+001	3.222559e+001
	-7.083689e-001	-5.740967e+000	-3.004029e+001	-9.506946e+001	-4.308722e+001	1.560173e+001	-9.992931e+000	9.532367e+001
	-9.961451e+000	9.330009e+001	-4.343872e+001	1.721988e+001	-3.224701e+001	-9.507534e+001	-7.614589e-001	1.434872e+001
	-4.180513e+001	4.011710e+001	-9.992793e+000	9.572864e+001	-7.555699e-001	1.480622e+001	-3.392953e+001	-6.384563e+001
4637500000	-2.763245e+001	-8.920164e+001	-7.259772e-001	-6.704045e+000	-9.975526e+000	9.232913e+001	-4.060574e+001	3.108687e+001
	-7.001008e-001	-6.709017e+000	-3.016463e+001	-9.135778e+001	-4.381010e+001	1.623445e+001	-9.978325e+000	9.438540e+001
	-9.947629e+000	9.236258e+001	-4.396494e+001	2.349538e+001	-3.219022e+001	-9.763528e+001	-7.550534e-001	1.342593e+001
	-4.125636e+001	3.599808e+001	-9.983123e+000	9.476239e+001	-7.562152e-001	1.384870e+001	-3.370206e+001	-6.582660e+001
4650000000	-2.822343e+001	-8.407645e+001	-7.302007e-001	-7.663416e+000	-9.958834e+000	9.140004e+001	-4.008713e+001	2.750092e+001
	-7.059511e-001	-7.673911e+000	-2.984033e+001	-9.048682e+001	-4.330339e+001	1.763623e+001	-9.972123e+000	9.343710e+001
	-9.940862e+000	9.141733e+001	-4.359487e+001	2.484300e+001	-3.236981e+001	-9.617767e+001	-7.560810e-001	1.249034e+001
	-4.092833e+001	2.747389e+001	-9.969886e+000	9.383322e+001	-7.522160e-001	1.297179e+001	-3.315613e+001	-7.056490e+001
4662500000	-2.967298e+001	-8.357171e+001	-7.259809e-001	-8.647646e+000	-9.954281e+000	9.044199e+001	-4.019131e+001	2.151594e+001
	-7.049546e-001	-8.621022e+000	-2.922658e+001	-9.186534e+001	-4.231750e+001	1.736312e+001	-9.963476e+000	9.245508e+001
	-9.930922e+000	9.052364e+001	-4.221017e+001	2.385059e+001	-3.232379e+001	-9.130173e+001	-7.580169e-001	1.156949e+001
	-4.042442e+001	1.950885e+001	-9.965326e+000	9.287435e+001	-7.521113e-001	1.200303e+001	-3.244191e+001	-7.623403e+001
4675000000	-3.137089e+001	-8.785271e+001	-7.268345e-001	-9.577577e+000	-9.939758e+000	8.952698e+001	-4.108465e+001	1.518836e+001
	-7.014068e-001	-9.581847e+000	-2.905861e+001	-9.611308e+001	-4.154567e+001	1.587976e+001	-9.950142e+000	9.152167e+001
	-9.919851e+000	8.956019e+001	-4.110990e+001	1.945338e+001	-3.224668e+001	-8.566655e+001	-7.644531e-001	1.065890e+001
	-4.062883e+001	1.445331e+001	-9.954560e+000	9.194036e+001	-7.583803e-001	1.111602e+001	-3.186157e+001	-8.076252e+001
4687500000	-3.273629e+001	-9.858342e+001	-7.232947e-001	-1.053891e+001	-9.933930e+000	8.863348e+001	-4.181650e+001	1.187258e+001
	-7.065232e-001	-1.055492e+001	-2.925818e+001	-9.917176e+001	-4.122841e+001	1.269328e+001	-9.945058e+000	9.057180e+001
	-9.909829e+000	8.863867e+001	-4.087483e+001	1.543738e+001	-3.186309e+001	-8.219399e+001	-7.587642e-001	9.741466e+000
	-4.115162e+001	1.319772e+001	-9.942766e+000	9.099352e+001	-7.593433e-001	1.019613e+001	-3.152088e+001	-8.324711e+001
4700000000	-3.237545e+001	-1.071637e+002	-7.240853e-001	-1.150753e+001	-9.932120e+000	8.767863e+001	-4.226553e+001	1.223334e+001
	-7.030624e-001	-1.149207e+001	-2.980912e+001	-1.005002e+002	-4.131191e+001	1.128159e+001	-9.935588e+000	8.966570e+001
	-9.896276e+000	8.765960e+001	-4.116875e+001	1.357572e+001	-3.160198e+001	-8.335843e+001	-7.544430e-001	8.840454e+000
	-4.168628e+001	1.657759e+001	-9.934181e+000	9.007565e+001	-7.623477e-001	9.274046e+000	-3.159389e+001	-8.186358e+001
4712500000	-3.087184e+001	-1.075436e+002	-7.225839e-001	-1.249874e+001	-9.909857e+000	8.664817e+001	-4.232385e+001	1.711758e+001
	-6.966035e-001	-1.245994e+001	-3.066658e+001	-9.906210e+001	-4.187142e+001	9.889315e+000	-9.921885e+000	8.868664e+001
	-9.881633e+000	8.675904e+001	-4.200653e+001	1.415227e+001	-3.144672e+001	-8.700917e+001	-7.609191e-001	7.913396e+000
	-4.197539e+001	2.450163e+001	-9.923305e+000	8.909792e+001	-7.536959e-001	8.379275e+000	-3.180317e+001	-7.899791e+001
4725000000	-2.948259e+001	-1.029708e+002	-7.186850e-001	-1.348275e+001	-9.899553e+000	8.576411e+001	-4.168313e+001	1.905803e+001
	-7.016845e-001	-1.346189e+001	-3.137736e+001	-9.631042e+001	-4.268945e+001	7.256051e+000	-9.911742e+000	8.777066e+001
	-9.882594e+000	8.579980e+001	-4.296040e+001	1.172875e+001	-3.130841e+001	-9.275198e+001	-7.561010e-001	6.986847e+000
	-4.181343e+001	2.841687e+001	-9.912448e+000	8.818097e+001	-7.572659e-001	7.439796e+000	-3.201189e+001	-7.476826e+001
4737500000	-2.874455e+001	-9.844071e+001	-7.183720e-001	-1.442161e+001	-9.882549e+000	8.482698e+001	-4.073795e+001	1.813345e+001
	-6.935847e-001	-1.444082e+001	-3.137076e+001	-9.581535e+001	-4.296211e+001	8.578815e+000	-9.901417e+000	8.677370e+001
	-9.867018e+000	8.486076e+001	-4.318212e+001	1.241111e+001	-3.121772e+001	-9.775179e+001	-7.550907e-001	6.035920e+000
	-4.116117e+001	2.407484e+001	-9.899144e+000	8.723412e+001	-7.589135e-001	6.529520e+000	-3.192338e+001	-7.305896e+001
4750000000	-2.880356e+001	-9.403588e+001	-7.175348e-001	-1.538321e+001	-9.873433e+000	8.386897e+001	-4.022997e+001	1.531419e+001
	-6.948449e-001	-1.540786e+001	-3.097651e+001	-9.617535e+001	-4.288892e+001	6.974545e+000	-9.883410e+000	8.582899e+001
	-9.857318e+000	8.390815e+001	-4.307009e+001	1.025933e+001	-3.116239e+001	-9.887967e+001	-7.522473e-001	5.128443e+000
	-4.074266e+001	1.863815e+001	-9.896870e+000	8.626586e+001	-7.581892e-001	5.589370e+000	-3.158466e+001	-7.418160e+001
4762500000	-2.968818e+001	-9.109565e+001	-7.180230e-001	-1.639520e+001	-9.863386e+000	8.291945e+001	-4.006874e+001	9.806472e+000
	-6.966706e-001	-1.637738e+001	-3.021909e+001	-1.005026e+002	-4.233232e+001	3.333898e+000	-9.873786e+000	8.485863e+001
	-9.846826e+000	8.298151e+001	-4.251257e+001	7.473418e+000	-3.103766e+001	-9.794040e+001	-7.550878e-001	4.210005e+000
	-4.065354e+001	1.076824e+001	-9.880200e+000	8.530588e+001	-7.552084e-001	4.690004e+000	-3.112300e+001	-7.925473e+001
4775000000	-3.121748e+001	-9.050674e+001	-7.199042e-001	-1.733471e+001	-9.858461e+000	8.200475e+001	-4.072499e+001	4.000152e+000
	-6.947306e-001	-1.735274e+001	-2.973962e+001	-1.051632e+002	-4.177416e+001	5.185435e-001	-9.872851e+000	8.389904e+001
	-9.837420e+000	8.202296e+001	-4.160589e+001	2.883910e+000	-3.082775e+001	-9.364427e+001	-7.637941e-001	3.241377e+000
	-4.086466e+001	3.820509e+000	-9.875122e+000	8.437130e+001	-7.560628e-001	3.766139e+000	-3.072759e+001	-8.597770e+001
4787500000	-3.277272e+001	-9.378776e+001	-7.136384e-001	-1.832988e+001	-9.850264e+000	8.108117e+001	-4.129634e+001	-8.262967e-001
	-6.924222e-001	-1.829389e+001	-2.980041e+001	-1.074773e+002	-4.179212e+001	-2.195324e+000	-9.861596e+000	8.298376e+001
	-9.824696e+000	8.113121e+001	-4.147664e+001	2.502958e+000	-3.050086e+001	-8.843540e+001	-7.547232e-001	2.348284e+000
	-4.123012e+001	-5.373943e-001	-9.868371e+000	8.346426e+001	-7.608375e-001	2.837353e+000	-3.051075e+001	-9.050480e+001
4800000000	-3.346739e+001	-1.016893e+002	-7.141768e-001	-1.932036e+001	-9.836444e+000	8.012025e+001	-4.236897e+001	4.296062e-001
	-6.964877e-001	-1.927711e+001	-3.051567e+001	-1.066111e+002	-4.151413e+001	-1.539611e+000	-9.855894e+000	8.202150e+001
	-9.816384e+000	8.015002e+001	-4.160056e+001	1.249328e+000	-3.026113e+001	-8.633246e+001	-7.611435e-001	1.435549e+000
	-4.204490e+001	4.836776e-001	-9.862794e+000	8.254329e+001	-7.616848e-001	1.964162e+000	-3.054798e+001	-9.214420e+001
4812500000	-3.281153e+001	-1.069739e+002	-7.085029e-001	-2.028189e+001	-9.825061e+000	7.916659e+001	-4.270401e+001	2.906274e+000
	-6.930450e-001	-2.025272e+001	-3.163361e+001	-1.021118e+002	-4.180419e+001	1.752573e-001	-9.836886e+000	8.106155e+001
	-9.807803e+000	7.917677e+001	-4.191256e+001	1.827982e+000	-3.010889e+001	-8.750523e+001	-7.587895e-001	5.136588e-001
	-4.232634e+001	8.669044e+000	-9.842090e+000	8.158876e+001	-7.547382e-001	1.023733e+000	-3.075394e+001	-9.006765e+001
4825000000	-3.137870e+001	-1.060603e+002	-7.071777e-001	-2.129197e+001	-9.814472e+000	7.822054e+001	-4.211606e+001	6.136552e+000
	-6.879550e-001	-2.123357e+001	-3.249861e+001	-9.526804e+001	-4.242689e+001	3.170428e+000	-9.833678e+000	8.014778e+001
	-9.791823e+000	7.825915e+001	-4.265023e+001	2.517226e+000	-3.028905e+001	-9.152094e+001	-7.534442e-001	-4.119315e-001
	-4.214378e+001	1.520183e+001	-9.833143e+000	8.056884e+001	-7.594369e-001	8.762501e-002	-3.080483e+001	-8.488803e+001
4837500000	-3.023759e+001	-1.041541e+002	-7.086775e-001	-2.224889e+001	-9.803552e+000	7.723322e+001	-4.089264e+001	6.649538e+000
	-6.875940e-001	-2.223489e+001	-3.277666e+001	-9.310152e+001	-4.231700e+001	2.592112e-001	-9.818890e+000	7.918319e+001
	-9.786330e+000	7.731223e+001	-4.283849e+001	1.642867e+000	-3.043029e+001	-9.761946e+001	-7.526523e-001	-1.330198e+000
	-4.101752e+001	1.667106e+001	-9.822850e+000	7.964681e+001	-7.624304e-001	-8.200915e-001	-3.045978e+001	-8.052458e+001
4850000000	-2.989491e+001	-1.015294e+002	-7.067750e-001	-2.326274e+001	-9.793315e+000	7.626911e+001	-4.015676e+001	1.605585e+000
	-6.890360e-001	-2.322713e+001	-3.260776e+001	-9.635883e+001	-4.229662e+001	-3.848075e+000	-9.813330e+000	7.823841e+001
	-9.775390e+000	7.632726e+001	-4.285737e+001	-1.069323e+000	-3.054537e+001	-1.028370e+002	-7.521441e-001	-2.266107e+000
	-4.066742e+001	1.084339e+001	-9.816922e+000	7.868222e+001	-7.589822e-001	-1.758165e+000	-3.006529e+001	-8.067618e+001
4862500000	-3.035901e+001	-9.972496e+001	-7.096113e-001	-2.419054e+001	-9.785861e+000	7.531414e+001	-3.986819e+001	-4.404951e+000
	-6.870099e-001	-2.417619e+001	-3.189618e+001	-1.058606e+002	-4.231973e+001	-1.218265e+001	-9.810203e+000	7.728354e+001
	-9.764892e+000	7.536835e+001	-4.242005e+001	-3.850448e+000	-3.047787e+001	-1.037576e+002	-7.562081e-001	-3.167493e+000
	-4.042397e+001	-1.854416e+000	-9.807595e+000	7.773743e+001	-7.586802e-001	-2.693005e+000	-2.980080e+001	-8.410930e+001
4875000000	-3.177925e+001	-9.756618e+001	-7.017649e-001	-2.518378e+001	-9.781594e+000	7.438675e+001	-4.052760e+001	-1.138881e+001
	-6.873501e-001	-2.516105e+001	-3.114135e+001	-1.143342e+002	-4.178895e+001	-1.411825e+001	-9.798134e+000	7.631942e+001
	-9.763145e+000	7.444038e+001	-4.218120e+001	-7.551215e+000	-3.002785e+001	-9.974219e+001	-7.567419e-001	-4.119849e+000
	-4.043670e+001	-1.010350e+001	-9.804104e+000	7.679753e+001	-7.573569e-001	-3.590667e+000	-2.977895e+001	-9.049188e+001
4887500000	-3.342536e+001	-9.696197e+001	-6.990161e-001	-2.617163e+001	-9.763894e+000	7.347403e+001	-4.177552e+001	-1.371738e+001
	-6.857752e-001	-2.615984e+001	-3.077372e+001	-1.177242e+002	-4.203680e+001	-1.393778e+001	-9.788284e+000	7.537305e+001
	-9.747981e+000	7.350670e+001	-4.182826e+001	-1.029163e+001	-2.941876e+001	-9.405224e+001	-7.568531e-001	-5.027193e+000
	-4.135799e+001	-1.611851e+001	-9.791858e+000	7.584734e+001	-7.570336e-001	-4.496158e+000	-3.007064e+001	-9.663854e+001
4900000000	-3.443686e+001	-9.617281e+001	-7.049584e-001	-2.716347e+001	-9.755905e+000	7.249823e+001	-4.284666e+001	-1.272013e+001
	-6.795988e-001	-2.712502e+001	-3.123316e+001	-1.159040e+002	-4.213253e+001	-1.202558e+001	-9.780346e+000	7.438763e+001
	-9.730145e+000	7.256450e+001	-4.183128e+001	-9.989941e+000	-2.876695e+001	-9.013013e+001	-7.584905e-001	-5.942242e+000
	-4.243356e+001	-1.256754e+001	-9.785419e+000	7.492404e+001	-7.525372e-001	-5.433356e+000	-3.035982e+001	-1.001389e+002
4912500000	-3.440061e+001	-9.834039e+001	-6.989448e-001	-2.817332e+001	-9.747826e+000	7.156190e+001	-4.305057e+001	-6.110635e+000
	-6.829100e-001	-2.812975e+001	-3.201723e+001	-1.076060e+002	-4.200515e+001	-1.015407e+001	-9.772489e+000	7.343986e+001
	-9.722558e+000	7.162639e+001	-4.189901e+001	-8.183259e+000	-2.856395e+001	-8.950809e+001	-7.554686e-001	-6.873340e+000
	-4.280629e+001	-1.306777e+000	-9.769566e+000	7.395816e+001	-7.544733e-001	-6.349114e+000	-3.038932e+001	-9.895896e+001
4925000000	-3.320652e+001	-1.026782e+002	-6.982314e-001	-2.913381e+001	-9.732054e+000	7.057183e+001	-4.207361e+001	-1.319844e+000
	-6.812650e-001	-2.912072e+001	-3.297427e+001	-9.523079e+001	-4.191538e+001	-8.172705e+000	-9.761702e+000	7.246432e+001
	-9.717779e+000	7.061727e+001	-4.226936e+001	-6.226949e+000	-2.879704e+001	-9.262369e+001	-7.512486e-001	-7.790383e+000
	-4.208146e+001	6.800916e+000	-9.766986e+000	7.298444e+001	-7.517173e-001	-7.313983e+000	-2.997833e+001	-9.455647e+001
4937500000	-3.209889e+001	-1.059908e+002	-7.035573e-001	-3.010787e+001	-9.726379e+000	6.962983e+001	-4.077157e+001	-3.718736e+000
	-6.790394e-001	-3.010385e+001	-3.332192e+001	-8.722393e+001	-4.178031e+001	-1.005996e+001	-9.751989e+000	7.151431e+001
	-9.711247e+000	6.967241e+001	-4.239872e+001	-6.314436e+000	-2.943951e+001	-9.809953e+001	-7.547272e-001	-8.734242e+000
	-4.095441e+001	5.297684e+000	-9.756773e+000	7.200153e+001	-7.485353e-001	-8.216624e+000	-2.929871e+001	-9.091532e+001
4950000000	-3.142607e+001	-1.080143e+002	-7.021392e-001	-3.112247e+001	-9.723571e+000	6.863620e+001	-4.005851e+001	-1.039886e+001
	-6.832831e-001	-3.109727e+001	-3.372123e+001	-8.861576e+001	-4.194954e+001	-1.456775e+001	-9.744459e+000	7.053073e+001
	-9.702483e+000	6.874201e+001	-4.264651e+001	-9.205286e+000	-3.009409e+001	-1.049849e+002	-7.524446e-001	-9.637192e+000
	-4.028010e+001	-3.051894e+000	-9.747975e+000	7.099309e+001	-7.549993e-001	-9.129492e+000	-2.869850e+001	-9.054389e+001
4962500000	-3.175957e+001	-1.061931e+002	-6.963406e-001	-3.213993e+001	-9.717217e+000	6.766221e+001	-4.002522e+001	-2.000462e+001
	-6.820092e-001	-3.214710e+001	-3.407090e+001	-1.035720e+002	-4.220266e+001	-2.013987e+001	-9.736943e+000	6.956998e+001
	-9.692365e+000	6.775879e+001	-4.256323e+001	-1.399317e+001	-3.021979e+001	-1.082808e+002	-7.513445e-001	-1.059657e+001
	-4.052509e+001	-1.368562e+001	-9.745853e+000	7.008835e+001	-7.539761e-001	-1.006257e+001	-2.850638e+001	-9.206782e+001
4975000000	-3.290124e+001	-1.024212e+002	-7.044363e-001	-3.308725e+001	-9.707142e+000	6.675529e+001	-4.036988e+001	-2.502941e+001
	-6.779029e-001	-3.309475e+001	-3.375056e+001	-1.217873e+002	-4.216398e+001	-2.432492e+001	-9.730164e+000	6.861272e+001
	-9.684534e+000	6.681037e+001	-4.232136e+001	-2.062517e+001	-2.980560e+001	-1.069002e+002	-7.509116e-001	-1.151970e+001
	-4.097502e+001	-2.367577e+001	-9.736576e+000	6.914172e+001	-7.563749e-001	-1.099537e+001	-2.880121e+001	-9.602753e+001
4987500000	-3.395521e+001	-9.612582e+001	-7.047284e-001	-3.412170e+001	-9.696682e+000	6.582488e+001	-4.163209e+001	-2.627051e+001
	-6.846645e-001	-3.408858e+001	-3.276407e+001	-1.318000e+002	-4.230365e+001	-2.652632e+001	-9.725742e+000	6.766432e+001
	-9.676981e+000	6.582861e+001	-4.223909e+001	-2.248978e+001	-2.871077e+001	-1.025708e+002	-7.524247e-001	-1.245910e+001
	-4.177284e+001	-2.627417e+001	-9.736503e+000	6.816785e+001	-7.520201e-001	-1.193722e+001	-2.947403e+001	-1.005445e+002
5000000000	-3.471982e+001	-9.177755e+001	-7.043158e-001	-3.509141e+001	-9.680345e+000	6.486404e+001	-4.297966e+001	-2.271458e+001
	-6.831182e-001	-3.505289e+001	-3.265629e+001	-1.312242e+002	-4.194638e+001	-2.662180e+001	-9.718641e+000	6.665899e+001
	-9.664696e+000	6.488942e+001	-4.224773e+001	-2.374553e+001	-2.781857e+001	-9.845931e+001	-7.500729e-001	-1.340918e+001
	-4.256276e+001	-2.185671e+001	-9.727566e+000	6.720689e+001	-7.499337e-001	-1.286641e+001	-3.020945e+001	-1.039827e+002
5012500000	-3.467314e+001	-9.533999e+001	-7.060874e-001	-3.607411e+001	-9.677228e+000	6.388834e+001	-4.268044e+001	-1.473189e+001
	-6.855143e-001	-3.606803e+001	-3.278749e+001	-1.199281e+002	-4.217981e+001	-2.287769e+001	-9.722409e+000	6.572832e+001
	-9.654609e+000	6.396421e+001	-4.239737e+001	-1.962764e+001	-2.722012e+001	-9.629166e+001	-7.517810e-001	-1.430455e+001
	-4.243117e+001	-1.524688e+001	-9.727971e+000	6.626650e+001	-7.457882e-001	-1.377295e+001	-3.033903e+001	-1.051802e+002
5025000000	-3.421553e+001	-1.016298e+002	-7.061389e-001	-3.708770e+001	-9.665855e+000	6.294450e+001	-4.187482e+001	-1.360168e+001
	-6.890024e-001	-3.706859e+001	-3.276699e+001	-1.025569e+002	-4.194647e+001	-2.088648e+001	-9.707666e+000	6.474806e+001
	-9.642289e+000	6.294175e+001	-4.211271e+001	-1.728592e+001	-2.736704e+001	-9.629090e+001	-7.472279e-001	-1.525803e+001
	-4.167548e+001	-8.168786e+000	-9.713701e+000	6.527230e+001	-7.477576e-001	-1.471476e+001	-2.976491e+001	-1.042427e+002
5037500000	-3.405493e+001	-1.093178e+002	-7.115241e-001	-3.807114e+001	-9.654573e+000	6.198079e+001	-4.094401e+001	-1.845340e+001
	-6.885871e-001	-3.807219e+001	-3.267356e+001	-8.880296e+001	-4.158879e+001	-1.998993e+001	-9.703691e+000	6.381044e+001
	-9.640563e+000	6.197618e+001	-4.183382e+001	-1.706946e+001	-2.802894e+001	-9.856616e+001	-7.392598e-001	-1.616708e+001
	-4.096274e+001	-1.071505e+001	-9.713424e+000	6.433401e+001	-7.435479e-001	-1.565403e+001	-2.865446e+001	-1.033740e+002
5050000000	-3.389151e+001	-1.110598e+002	-7.144867e-001	-3.905457e+001	-9.644592e+000	6.101306e+001	-4.029123e+001	-2.552384e+001
	-6.872955e-001	-3.908497e+001	-3.305881e+001	-8.499085e+001	-4.166706e+001	-2.411516e+001	-9.700221e+000	6.286612e+001
	-9.630879e+000	6.098723e+001	-4.182379e+001	-2.154062e+001	-2.919580e+001	-1.044675e+002	-7.399817e-001	-1.708935e+001
	-4.100350e+001	-1.592658e+001	-9.706298e+000	6.334930e+001	-7.479325e-001	-1.659401e+001	-2.769942e+001	-1.037990e+002
5062500000	-3.440237e+001	-1.079598e+002	-7.179027e-001	-4.004350e+001	-9.638188e+000	6.002840e+001	-4.040432e+001	-3.120947e+001
	-6.965886e-001	-4.003859e+001	-3.490279e+001	-8.923760e+001	-4.156820e+001	-3.054773e+001	-9.699196e+000	6.192348e+001
	-9.627565e+000	6.004226e+001	-4.208401e+001	-2.822499e+001	-2.998143e+001	-1.105418e+002	-7.446744e-001	-1.806052e+001
	-4.121153e+001	-2.507254e+001	-9.698349e+000	6.240984e+001	-7.469114e-001	-1.749566e+001	-2.714782e+001	-1.045075e+002
5075000000	-3.432949e+001	-9.962479e+001	-7.234232e-001	-4.098875e+001	-9.646085e+000	5.903134e+001	-4.069609e+001	-3.685563e+001
	-6.998071e-001	-4.104448e+001	-3.730820e+001	-1.076615e+002	-4.185254e+001	-3.737392e+001	-9.695514e+000	6.094682e+001
	-9.621371e+000	5.901106e+001	-4.291658e+001	-3.459032e+001	-2.981106e+001	-1.145670e+002	-7.452954e-001	-1.902869e+001
	-4.170122e+001	-3.276740e+001	-9.698735e+000	6.146881e+001	-7.495700e-001	-1.845930e+001	-2.724976e+001	-1.059150e+002
5087500000	-3.448584e+001	-9.376028e+001	-7.295534e-001	-4.195343e+001	-9.636184e+000	5.809651e+001	-4.159284e+001	-3.639725e+001
	-7.086269e-001	-4.199236e+001	-3.764158e+001	-1.379988e+002	-4.248905e+001	-4.415045e+001	-9.687495e+000	6.001671e+001
	-9.622889e+000	5.807196e+001	-4.308259e+001	-3.492893e+001	-2.892841e+001	-1.134543e+002	-7.449803e-001	-1.995635e+001
	-4.219650e+001	-3.811029e+001	-9.696833e+000	6.049348e+001	-7.477958e-001	-1.938627e+001	-2.792671e+001	-1.060082e+002
5100000000	-3.448556e+001	-9.036827e+001	-7.336204e-001	-4.287568e+001	-9.626611e+000	5.719363e+001	-4.242339e+001	-3.136731e+001
	-7.129268e-001	-4.294079e+001	-3.606262e+001	-1.499613e+002	-4.330617e+001	-4.398219e+001	-9.687121e+000	5.905423e+001
	-9.607507e+000	5.718648e+001	-4.294811e+001	-3.374603e+001	-2.764368e+001	-1.094685e+002	-7.402354e-001	-2.089561e+001
	-4.222293e+001	-3.432642e+001	-9.691843e+000	5.953982e+001	-7.466812e-001	-2.033544e+001	-2.882405e+001	-1.047514e+002
5112500000	-3.502979e+001	-9.360479e+001	-7.347475e-001	-4.388613e+001	-9.615878e+000	5.619064e+001	-4.242833e+001	-2.724665e+001
	-7.058980e-001	-4.394655e+001	-3.568749e+001	-1.407795e+002	-4.370746e+001	-3.446400e+001	-9.681806e+000	5.811141e+001
	-9.595267e+000	5.619262e+001	-4.274479e+001	-2.688822e+001	-2.656664e+001	-1.050896e+002	-7.452015e-001	-2.184070e+001
	-4.219739e+001	-2.804293e+001	-9.694023e+000	5.862043e+001	-7.485410e-001	-2.129548e+001	-2.955340e+001	-1.030396e+002
5125000000	-3.613071e+001	-9.894317e+001	-7.357010e-001	-4.486131e+001	-9.613817e+000	5.525585e+001	-4.189830e+001	-2.411066e+001
	-7.152080e-001	-4.491501e+001	-3.500812e+001	-1.210519e+002	-4.285910e+001	-2.515936e+001	-9.676983e+000	5.715396e+001
	-9.589834e+000	5.520005e+001	-4.219575e+001	-2.605251e+001	-2.613811e+001	-1.021808e+002	-7.423651e-001	-2.278964e+001
	-4.166737e+001	-2.348169e+001	-9.689448e+000	5.768181e+001	-7.463672e-001	-2.225898e+001	-2.944542e+001	-1.034306e+002
5137500000	-3.706785e+001	-1.039070e+002	-7.372958e-001	-4.587402e+001	-9.605360e+000	5.418983e+001	-4.128254e+001	-3.017201e+001
	-7.235157e-001	-4.590562e+001	-3.347128e+001	-1.032482e+002	-4.134912e+001	-2.367843e+001	-9.678414e+000	5.619131e+001
	-9.581505e+000	5.421062e+001	-4.151056e+001	-2.469119e+001	-2.638461e+001	-1.015624e+002	-7.418271e-001	-2.372362e+001
	-4.121690e+001	-2.457158e+001	-9.687975e+000	5.673656e+001	-7.474541e-001	-2.321985e+001	-2.875080e+001	-1.079633e+002
5150000000	-3.698090e+001	-1.011595e+002	-7.428211e-001	-4.680460e+001	-9.595829e+000	5.327187e+001	-4.085276e+001	-3.399953e+001
	-7.247614e-001	-4.689875e+001	-3.276405e+001	-9.402988e+001	-4.064510e+001	-3.070042e+001	-9.679191e+000	5.522743e+001
	-9.576143e+000	5.324653e+001	-4.132927e+001	-3.200539e+001	-2.742792e+001	-1.032463e+002	-7.482705e-001	-2.467947e+001
	-4.112656e+001	-2.715555e+001	-9.673126e+000	5.578198e+001	-7.496412e-001	-2.414030e+001	-2.774083e+001	-1.133309e+002
5162500000	-3.626933e+001	-9.962917e+001	-7.489132e-001	-4.779584e+001	-9.596837e+000	5.228911e+001	-4.088282e+001	-4.186750e+001
	-7.239643e-001	-4.785110e+001	-3.364383e+001	-9.123431e+001	-4.071979e+001	-4.062883e+001	-9.669627e+000	5.430601e+001
	-9.572900e+000	5.228137e+001	-4.183334e+001	-3.906543e+001	-2.886256e+001	-1.078900e+002	-7.435757e-001	-2.560764e+001
	-4.151045e+001	-3.359695e+001	-9.676003e+000	5.483809e+001	-7.522621e-001	-2.507772e+001	-2.708741e+001	-1.178050e+002
5175000000	-3.527174e+001	-9.653071e+001	-7.514571e-001	-4.875483e+001	-9.600516e+000	5.135868e+001	-4.100175e+001	-4.640307e+001
	-7.284870e-001	-4.881826e+001	-3.678905e+001	-9.389430e+001	-4.133901e+001	-5.080965e+001	-9.663834e+000	5.333532e+001
	-9.580500e+000	5.131410e+001	-4.224319e+001	-4.827366e+001	-2.978304e+001	-1.134665e+002	-7.454023e-001	-2.658032e+001
	-4.178127e+001	-4.154528e+001	-9.669664e+000	5.387159e+001	-7.542241e-001	-2.599154e+001	-2.692236e+001	-1.190781e+002
5187500000	-3.474717e+001	-9.461607e+001	-7.482225e-001	-4.966464e+001	-9.592730e+000	5.034464e+001	-4.149005e+001	-4.846938e+001
	-7.313285e-001	-4.974675e+001	-4.153345e+001	-1.113087e+002	-4.268933e+001	-5.615611e+001	-9.651102e+000	5.244145e+001
	-9.569360e+000	5.030767e+001	-4.337186e+001	-4.893376e+001	-2.946058e+001	-1.175034e+002	-7.533105e-001	-2.756422e+001
	-4.215872e+001	-4.548343e+001	-9.658155e+000	5.297232e+001	-7.548827e-001	-2.696569e+001	-2.712165e+001	-1.173704e+002
5200000000	-3.529350e+001	-9.340831e+001	-7.492158e-001	-5.062386e+001	-9.588774e+000	4.942536e+001	-4.211970e+001	-4.657295e+001
	-7.260481e-001	-5.070067e+001	-4.452459e+001	-1.447613e+002	-4.395697e+001	-5.131473e+001	-9.653940e+000	5.149908e+001
	-9.570144e+000	4.936982e+001	-4.400482e+001	-4.499216e+001	-2.802468e+001	-1.175572e+002	-7.601090e-001	-2.851096e+001
	-4.231914e+001	-4.606725e+001	-9.661317e+000	5.204391e+001	-7.586231e-001	-2.794518e+001	-2.747349e+001	-1.123471e+002
5212500000	-3.629916e+001	-8.959615e+001	-7.536761e-001	-5.157335e+001	-9.595405e+000	4.843305e+001	-4.227869e+001	-4.350481e+001
	-7.295674e-001	-5.167189e+001	-4.354112e+001	-1.493030e+002	-4.414891e+001	-4.520441e+001	-9.654631e+000	5.052371e+001
	-9.566326e+000	4.838897e+001	-4.350528e+001	-3.487367e+001	-2.653301e+001	-1.164654e+002	-7.641256e-001	-2.949050e+001
	-4.215944e+001	-4.243658e+001	-9.661302e+000	5.107048e+001	-7.658314e-001	-2.891171e+001	-2.768427e+001	-1.077254e+002
5225000000	-3.751085e+001	-8.444172e+001	-7.510666e-001	-5.250445e+001	-9.582950e+000	4.745082e+001	-4.188631e+001	-3.933221e+001
	-7.303421e-001	-5.262366e+001	-4.029884e+001	-1.268840e+002	-4.297806e+001	-3.807965e+001	-9.656576e+000	4.960939e+001
	-9.564809e+000	4.741545e+001	-4.227035e+001	-3.231889e+001	-2.547969e+001	-1.136753e+002	-7.693081e-001	-3.041241e+001
	-4.143791e+001	-3.788376e+001	-9.656392e+000	5.014906e+001	-7.710441e-001	-2.985791e+001	-2.778866e+001	-1.069656e+002
5237500000	-3.799588e+001	-7.813369e+001	-7.490046e-001	-5.348649e+001	-9.577296e+000	4.649867e+001	-4.149760e+001	-4.109727e+001
	-7.345459e-001	-5.356987e+001	-3.670470e+001	-1.121036e+002	-4.157466e+001	-3.923260e+001	-9.649187e+000	4.868207e+001
	-9.567825e+000	4.641284e+001	-4.120573e+001	-3.562026e+001	-2.521954e+001	-1.124004e+002	-7.748969e-001	-3.136283e+001
	-4.130255e+001	-3.737134e+001	-9.652866e+000	4.917633e+001	-7.737006e-001	-3.082584e+001	-2.778083e+001	-1.110360e+002
5250000000	-3.778492e+001	-7.848311e+001	-7.513891e-001	-5.447273e+001	-9.581407e+000	4.554962e+001	-4.067809e+001	-4.690914e+001
	-7.331085e-001	-5.453627e+001	-3.426920e+001	-1.055063e+002	-4.083721e+001	-4.345138e+001	-9.647562e+000	4.771513e+001
	-9.557654e+000	4.549214e+001	-4.083013e+001	-4.176432e+001	-2.576124e+001	-1.111296e+002	-7.787650e-001	-3.228658e+001
	-4.109103e+001	-4.091205e+001	-9.649771e+000	4.823987e+001	-7.815267e-001	-3.176948e+001	-2.793152e+001	-1.200280e+002
5262500000	-3.672473e+001	-8.687217e+001	-7.473713e-001	-5.543297e+001	-9.576834e+000	4.461111e+001	-4.070643e+001	-5.298820e+001
	-7.279357e-001	-5.550779e+001	-3.445992e+001	-1.019246e+002	-4.092001e+001	-5.031947e+001	-9.641171e+000	4.673387e+001
	-9.552536e+000	4.450855e+001	-4.137510e+001	-5.253479e+001	-2.698590e+001	-1.094835e+002	-7.857699e-001	-3.322239e+001
	-4.179366e+001	-4.442888e+001	-9.636070e+000	4.731383e+001	-7.833517e-001	-3.264286e+001	-2.788758e+001	-1.278633e+002
5275000000	-3.633724e+001	-9.492250e+001	-7.526656e-001	-5.638222e+001	-9.570762e+000	4.368109e+001	-4.117881e+001	-5.853154e+001
	-7.355018e-001	-5.649174e+001	-3.643759e+001	-9.975433e+001	-4.109973e+001	-5.763683e+001	-9.634854e+000	4.582696e+001
	-9.557030e+000	4.359477e+001	-4.239180e+001	-6.095951e+001	-2.828055e+001	-1.100419e+002	-7.845169e-001	-3.413811e+001
	-4.229067e+001	-4.986240e+001	-9.635359e+000	4.638417e+001	-7.896547e-001	-3.361638e+001	-2.764986e+001	-1.321040e+002
5287500000	-3.601184e+001	-9.509905e+001	-7.510980e-001	-5.735827e+001	-9.575126e+000	4.267512e+001	-4.203452e+001	-5.944537e+001
	-7.340464e-001	-5.745157e+001	-4.159199e+001	-8.909415e+001	-4.203551e+001	-6.429121e+001	-9.632183e+000	4.488043e+001
	-9.559492e+000	4.270589e+001	-4.393827e+001	-6.540071e+001	-2.899167e+001	-1.128416e+002	-7.977052e-001	-3.509335e+001
	-4.293451e+001	-5.535752e+001	-9.625863e+000	4.541288e+001	-7.948325e-001	-3.455341e+001	-2.724548e+001	-1.303499e+002
5300000000	-3.632906e+001	-8.993664e+001	-7.510286e-001	-5.831529e+001	-9.582719e+000	4.174060e+001	-4.208622e+001	-6.049592e+001
	-7.331000e-001	-5.841631e+001	-4.675252e+001	-6.588977e+001	-4.255214e+001	-6.161221e+001	-9.632801e+000	4.388251e+001
	-9.554698e+000	4.170399e+001	-4.498268e+001	-5.819334e+001	-2.831604e+001	-1.176608e+002	-8.060755e-001	-3.603613e+001
	-4.256501e+001	-5.673356e+001	-9.629868e+000	4.440514e+001	-8.065248e-001	-3.546041e+001	-2.664978e+001	-1.266805e+002
5312500000	-3.666392e+001	-7.795572e+001	-7.482990e-001	-5.925550e+001	-9.587407e+000	4.084792e+001	-4.203304e+001	-5.711698e+001
	-7.323332e-001	-5.934674e+001	-4.859328e+001	-5.437469e+001	-4.288736e+001	-5.957714e+001	-9.627402e+000	4.293701e+001
	-9.555387e+000	4.081452e+001	-4.376621e+001	-4.545947e+001	-2.711412e+001	-1.222507e+002	-8.165902e-001	-3.695228e+001
	-4.205925e+001	-5.701672e+001	-9.630761e+000	4.350990e+001	-8.146045e-001	-3.639172e+001	-2.610013e+001	-1.227159e+002
5325000000	-3.625978e+001	-6.733642e+001	-7.441407e-001	-6.018469e+001	-9.577134e+000	3.989365e+001	-4.181473e+001	-5.526147e+001
	-7.254432e-001	-6.031157e+001	-4.553159e+001	-7.909982e+001	-4.302621e+001	-5.535643e+001	-9.631593e+000	4.202002e+001
	-9.549322e+000	3.987571e+001	-4.240087e+001	-4.014744e+001	-2.589185e+001	-1.239536e+002	-8.264190e-001	-3.788776e+001
	-4.150995e+001	-5.515708e+001	-9.626281e+000	4.254840e+001	-8.243880e-001	-3.729341e+001	-2.593796e+001	-1.204801e+002
5337500000	-3.627109e+001	-5.867072e+001	-7.414248e-001	-6.119007e+001	-9.577204e+000	3.898552e+001	-4.173914e+001	-5.658718e+001
	-7.255166e-001	-6.129564e+001	-4.070396e+001	-9.898977e+001	-4.264122e+001	-5.300279e+001	-9.635670e+000	4.110741e+001
	-9.548092e+000	3.890782e+001	-4.118094e+001	-4.482902e+001	-2.525500e+001	-1.243053e+002	-8.352895e-001	-3.877596e+001
	-4.171801e+001	-5.589662e+001	-9.630879e+000	4.161495e+001	-8.335142e-001	-3.821685e+001	-2.636707e+001	-1.200461e+002
5350000000	-3.672240e+001	-5.909976e+001	-7.364446e-001	-6.217264e+001	-9.567261e+000	3.802464e+001	-4.167318e+001	-5.960400e+001
	-7.224900e-001	-6.224571e+001	-3.786926e+001	-1.063507e+002	-4.202055e+001	-5.171667e+001	-9.625781e+000	4.018665e+001
	-9.551486e+000	3.799029e+001	-4.109276e+001	-5.228056e+001	-2.538296e+001	-1.220113e+002	-8.425475e-001	-3.968463e+001
	-4.164413e+001	-5.711004e+001	-9.623656e+000	4.066822e+001	-8.363348e-001	-3.912185e+001	-2.718733e+001	-1.210942e+002
5362500000	-3.780838e+001	-6.883217e+001	-7.415053e-001	-6.316851e+001	-9.560392e+000	3.711095e+001	-4.193753e+001	-6.257067e+001
	-7.221575e-001	-6.324363e+001	-3.735732e+001	-1.086372e+002	-4.151996e+001	-5.287135e+001	-9.627122e+000	3.921555e+001
	-9.545458e+000	3.701194e+001	-4.174591e+001	-6.293635e+001	-2.579500e+001	-1.177761e+002	-8.421003e-001	-4.059552e+001
	-4.218190e+001	-5.311143e+001	-9.620946e+000	3.974101e+001	-8.380748e-001	-4.004465e+001	-2.808407e+001	-1.237560e+002
5375000000	-3.859669e+001	-8.225795e+001	-7.446697e-001	-6.411133e+001	-9.550188e+000	3.610812e+001	-4.217942e+001	-6.498037e+001
	-7.247563e-001	-6.419419e+001	-3.893289e+001	-1.029209e+002	-4.149736e+001	-6.076640e+001	-9.630803e+000	3.825082e+001
	-9.541626e+000	3.606822e+001	-4.282688e+001	-7.024283e+001	-2.666970e+001	-1.135744e+002	-8.520036e-001	-4.147678e+001
	-4.248874e+001	-5.665110e+001	-9.622814e+000	3.880352e+001	-8.483638e-001	-4.093263e+001	-2.846971e+001	-1.273017e+002
5387500000	-3.856024e+001	-9.112146e+001	-7.447087e-001	-6.509925e+001	-9.559931e+000	3.520038e+001	-4.205993e+001	-6.693251e+001
	-7.209036e-001	-6.519447e+001	-4.211496e+001	-8.355375e+001	-4.129627e+001	-6.823812e+001	-9.621189e+000	3.734282e+001
	-9.537602e+000	3.512704e+001	-4.435075e+001	-7.366925e+001	-2.721408e+001	-1.129686e+002	-8.561714e-001	-4.241545e+001
	-4.252740e+001	-6.136042e+001	-9.618616e+000	3.784390e+001	-8.597655e-001	-4.180294e+001	-2.811927e+001	-1.321058e+002
5400000000	-3.814746e+001	-8.480818e+001	-7.414426e-001	-6.604049e+001	-9.561543e+000	3.425919e+001	-4.204494e+001	-6.968232e+001
	-7.215114e-001	-6.615190e+001	-4.270942e+001	-4.625343e+001	-4.196761e+001	-7.559502e+001	-9.618848e+000	3.643274e+001
	-9.535401e+000	3.428142e+001	-4.455434e+001	-6.699788e+001	-2.737723e+001	-1.160692e+002	-8.651565e-001	-4.329431e+001
	-4.239394e+001	-6.856916e+001	-9.622026e+000	3.691198e+001	-8.645115e-001	-4.274369e+001	-2.727460e+001	-1.362584e+002
5412500000	-3.665288e+001	-7.125286e+001	-7.342637e-001	-6.703369e+001	-9.563736e+000	3.336371e+001	-4.188881e+001	-7.366847e+001
	-7.156997e-001	-6.711183e+001	-4.090192e+001	-3.546853e+001	-4.290295e+001	-7.537039e+001	-9.620469e+000	3.543023e+001
	-9.530660e+000	3.334548e+001	-4.404319e+001	-5.701695e+001	-2.704060e+001	-1.230789e+002	-8.703436e-001	-4.417439e+001
	-4.211873e+001	-7.511898e+001	-9.619683e+000	3.597251e+001	-8.680439e-001	-4.358269e+001	-2.635827e+001	-1.382028e+002
5425000000	-3.484714e+001	-6.284897e+001	-7.313583e-001	-6.800357e+001	-9.548803e+000	3.242843e+001	-4.218195e+001	-7.362779e+001
	-7.053258e-001	-6.808372e+001	-4.025134e+001	-4.024859e+001	-4.355949e+001	-7.200880e+001	-9.626276e+000	3.456547e+001
	-9.517166e+000	3.236134e+001	-4.265950e+001	-5.448543e+001	-2.645679e+001	-1.292901e+002	-8.814718e-001	-4.505859e+001
	-4.251064e+001	-7.387223e+001	-9.618355e+000	3.505373e+001	-8.760173e-001	-4.448707e+001	-2.580953e+001	-1.381872e+002
5437500000	-3.359572e+001	-5.695307e+001	-7.243788e-001	-6.898675e+001	-9.539721e+000	3.146515e+001	-4.227630e+001	-7.108138e+001
	-7.066245e-001	-6.910670e+001	-4.046891e+001	-6.016491e+001	-4.318698e+001	-6.293239e+001	-9.623812e+000	3.370482e+001
	-9.521335e+000	3.140711e+001	-4.191182e+001	-5.624516e+001	-2.590364e+001	-1.316988e+002	-8.843350e-001	-4.589812e+001
	-4.260028e+001	-6.838957e+001	-9.612897e+000	3.414489e+001	-8.781909e-001	-4.536364e+001	-2.573423e+001	-1.361151e+002
5450000000	-3.386900e+001	-5.202261e+001	-7.254170e-001	-7.002074e+001	-9.537443e+000	3.056294e+001	-4.226057e+001	-6.820946e+001
	-7.079642e-001	-7.009630e+001	-4.145337e+001	-8.136901e+001	-4.230114e+001	-6.027574e+001	-9.617554e+000	3.273190e+001
	-9.514035e+000	3.043788e+001	-4.125134e+001	-6.306235e+001	-2.568414e+001	-1.305427e+002	-8.866913e-001	-4.679377e+001
	-4.248872e+001	-6.455285e+001	-9.615008e+000	3.322050e+001	-8.773816e-001	-4.624885e+001	-2.593154e+001	-1.326545e+002
5462500000	-3.563904e+001	-5.290442e+001	-7.209417e-001	-7.099245e+001	-9.520267e+000	2.961140e+001	-4.182160e+001	-6.694147e+001
	-7.031360e-001	-7.108646e+001	-4.282161e+001	-9.854864e+001	-4.133675e+001	-6.349714e+001	-9.612346e+000	3.179075e+001
	-9.505338e+000	2.947533e+001	-4.151987e+001	-7.062443e+001	-2.561337e+001	-1.272863e+002	-8.830339e-001	-4.769477e+001
	-4.207637e+001	-6.123968e+001	-9.612390e+000	3.229276e+001	-8.801730e-001	-4.712807e+001	-2.618199e+001	-1.289831e+002
5475000000	-3.880200e+001	-5.242043e+001	-7.243003e-001	-7.197006e+001	-9.516927e+000	2.860908e+001	-4.192647e+001	-7.137530e+001
	-7.052115e-001	-7.205392e+001	-4.612437e+001	-8.971832e+001	-4.142101e+001	-6.914613e+001	-9.612666e+000	3.087708e+001
	-9.505320e+000	2.859494e+001	-4.265200e+001	-7.873889e+001	-2.559898e+001	-1.230810e+002	-8.870278e-001	-4.861871e+001
	-4.200687e+001	-6.585049e+001	-9.608959e+000	3.138315e+001	-8.792712e-001	-4.802145e+001	-2.662231e+001	-1.274866e+002
5487500000	-4.103570e+001	-5.842087e+001	-7.208639e-001	-7.296318e+001	-9.518349e+000	2.766463e+001	-4.166306e+001	-7.956527e+001
	-6.965000e-001	-7.303364e+001	-4.552563e+001	-5.212152e+001	-4.155884e+001	-7.709855e+001	-9.607599e+000	2.996269e+001
	-9.496087e+000	2.761553e+001	-4.386128e+001	-8.201340e+001	-2.576907e+001	-1.205850e+002	-8.889439e-001	-4.949427e+001
	-4.227894e+001	-7.333638e+001	-9.607811e+000	3.048595e+001	-8.812089e-001	-4.889569e+001	-2.701851e+001	-1.295636e+002
5500000000	-4.054468e+001	-6.794179e+001	-7.209763e-001	-7.399089e+001	-9.521946e+000	2.669431e+001	-4.189887e+001	-8.339541e+001
	-7.028924e-001	-7.401872e+001	-4.080773e+001	-3.309245e+001	-4.233370e+001	-8.099807e+001	-9.610684e+000	2.905351e+001
	-9.499512e+000	2.665638e+001	-4.453373e+001	-7.976422e+001	-2.585509e+001	-1.217957e+002	-8.925216e-001	-5.034183e+001
	-4.251457e+001	-8.253873e+001	-9.600361e+000	2.953908e+001	-8.875908e-001	-4.978939e+001	-2.726644e+001	-1.354031e+002
5512500000	-3.736290e+001	-7.025694e+001	-7.142626e-001	-7.497342e+001	-9.512371e+000	2.579985e+001	-4.281140e+001	-8.829707e+001
	-7.021403e-001	-7.502491e+001	-3.784838e+001	-3.648804e+001	-4.261761e+001	-8.030990e+001	-9.606121e+000	2.809876e+001
	-9.493365e+000	2.572367e+001	-4.426716e+001	-7.253867e+001	-2.603619e+001	-1.258316e+002	-8.933388e-001	-5.120396e+001
	-4.289233e+001	-8.721165e+001	-9.597586e+000	2.862328e+001	-8.867036e-001	-5.065718e+001	-2.723676e+001	-1.410587e+002
5525000000	-3.392586e+001	-6.809570e+001	-7.132060e-001	-7.598906e+001	-9.508097e+000	2.485208e+001	-4.321721e+001	-8.442060e+001
	-6.974741e-001	-7.599168e+001	-3.702802e+001	-4.565734e+001	-4.248190e+001	-7.713824e+001	-9.607101e+000	2.720355e+001
	-9.484669e+000	2.481821e+001	-4.293322e+001	-6.565874e+001	-2.623206e+001	-1.304783e+002	-8.965268e-001	-5.206989e+001
	-4.324490e+001	-8.819647e+001	-9.597446e+000	2.770487e+001	-8.861765e-001	-5.152513e+001	-2.702541e+001	-1.450450e+002
5537500000	-3.215391e+001	-6.510451e+001	-7.121475e-001	-7.697031e+001	-9.495609e+000	2.391313e+001	-4.300532e+001	-8.151336e+001
	-6.945982e-001	-7.707056e+001	-3.797721e+001	-5.418453e+001	-4.207509e+001	-7.628896e+001	-9.600893e+000	2.627263e+001
	-9.480483e+000	2.379707e+001	-4.136692e+001	-6.817517e+001	-2.618880e+001	-1.340166e+002	-8.910919e-001	-5.296218e+001
	-4.321033e+001	-8.003138e+001	-9.589019e+000	2.678208e+001	-8.822645e-001	-5.239191e+001	-2.660296e+001	-1.465168e+002
5550000000	-3.175294e+001	-5.925377e+001	-7.110247e-001	-7.798463e+001	-9.497371e+000	2.293284e+001	-4.240969e+001	-7.646391e+001
	-6.919738e-001	-7.802368e+001	-4.031406e+001	-5.603434e+001	-4.187083e+001	-7.678546e+001	-9.589397e+000	2.536047e+001
	-9.477929e+000	2.285015e+001	-4.082135e+001	-7.243097e+001	-2.602427e+001	-1.360251e+002	-8.880122e-001	-5.384045e+001
	-4.276829e+001	-7.541561e+001	-9.582143e+000	2.580685e+001	-8.838009e-001	-5.327420e+001	-2.624408e+001	-1.445109e+002
5562500000	-3.258036e+001	-5.171269e+001	-7.141094e-001	-7.901493e+001	-9.499920e+000	2.194175e+001	-4.179881e+001	-8.132246e+001
	-6.933416e-001	-7.905605e+001	-4.458882e+001	-3.562661e+001	-4.197106e+001	-7.894390e+001	-9.577408e+000	2.441017e+001
	-9.478916e+000	2.185294e+001	-4.115927e+001	-8.234501e+001	-2.572400e+001	-1.343702e+002	-8.821747e-001	-5.474516e+001
	-4.192747e+001	-7.229403e+001	-9.579707e+000	2.486190e+001	-8.832674e-001	-5.416764e+001	-2.589976e+001	-1.424478e+002
5575000000	-3.428951e+001	-3.937467e+001	-7.146959e-001	-7.999319e+001	-9.488108e+000	2.096496e+001	-4.130038e+001	-8.446912e+001
	-6.949628e-001	-8.004952e+001	-4.311762e+001	-6.817073e+000	-4.201029e+001	-8.409325e+001	-9.577472e+000	2.345213e+001
	-9.470226e+000	2.090410e+001	-4.252010e+001	-9.017755e+001	-2.538344e+001	-1.332102e+002	-8.832304e-001	-5.565437e+001
	-4.174611e+001	-7.574589e+001	-9.578854e+000	2.395368e+001	-8.761424e-001	-5.508085e+001	-2.564677e+001	-1.407733e+002
5587500000	-3.615914e+001	-2.755954e+001	-7.184361e-001	-8.101773e+001	-9.481737e+000	1.998537e+001	-4.178094e+001	-9.113918e+001
	-6.981812e-001	-8.106425e+001	-4.007624e+001	-7.800412e+000	-4.266456e+001	-8.433487e+001	-9.579079e+000	2.251414e+001
	-9.476543e+000	1.991309e+001	-4.425028e+001	-9.310432e+001	-2.511728e+001	-1.321022e+002	-8.843681e-001	-5.657756e+001
	-4.193868e+001	-8.115646e+001	-9.571979e+000	2.304275e+001	-8.770886e-001	-5.600754e+001	-2.567589e+001	-1.399871e+002
5600000000	-3.832671e+001	-2.707462e+001	-7.205715e-001	-8.197831e+001	-9.491516e+000	1.899667e+001	-4.263147e+001	-9.765395e+001
	-7.004228e-001	-8.203115e+001	-3.814797e+001	-2.471054e+001	-4.248938e+001	-8.711180e+001	-9.574989e+000	2.162677e+001
	-9.472510e+000	1.901185e+001	-4.552096e+001	-8.836357e+001	-2.512125e+001	-1.318812e+002	-8.863763e-001	-5.747545e+001
	-4.254129e+001	-9.110409e+001	-9.574191e+000	2.216106e+001	-8.750970e-001	-5.689413e+001	-2.586919e+001	-1.415298e+002
5612500000	-3.841997e+001	-4.643068e+001	-7.237310e-001	-8.296401e+001	-9.490383e+000	1.805682e+001	-4.344390e+001	-9.748583e+001
	-7.024755e-001	-8.303975e+001	-3.666215e+001	-4.275293e+001	-4.220346e+001	-8.926671e+001	-9.569436e+000	2.063893e+001
	-9.471508e+000	1.806341e+001	-4.446587e+001	-7.639552e+001	-2.525574e+001	-1.327452e+002	-8.831985e-001	-5.836907e+001
	-4.316668e+001	-9.840572e+001	-9.562996e+000	2.122131e+001	-8.694270e-001	-5.780777e+001	-2.625685e+001	-1.437940e+002
5625000000	-3.545272e+001	-6.773671e+001	-7.241379e-001	-8.395662e+001	-9.492456e+000	1.713672e+001	-4.359992e+001	-9.601446e+001
	-7.064124e-001	-8.401093e+001	-3.611103e+001	-5.394286e+001	-4.148599e+001	-9.048504e+001	-9.574159e+000	1.969659e+001
	-9.467229e+000	1.714288e+001	-4.235867e+001	-7.757022e+001	-2.555097e+001	-1.343525e+002	-8.776486e-001	-5.921714e+001
	-4.419783e+001	-9.920236e+001	-9.557891e+000	2.028609e+001	-8.752377e-001	-5.872946e+001	-2.669516e+001	-1.469071e+002
5637500000	-3.301513e+001	-7.543959e+001	-7.225069e-001	-8.500724e+001	-9.480625e+000	1.613854e+001	-4.302805e+001	-9.315244e+001
	-7.063270e-001	-8.501107e+001	-3.698675e+001	-5.722735e+001	-4.136876e+001	-9.387185e+001	-9.565720e+000	1.884629e+001
	-9.463756e+000	1.608955e+001	-4.092691e+001	-8.303618e+001	-2.588020e+001	-1.362624e+002	-8.761860e-001	-6.012819e+001
	-4.375530e+001	-9.629337e+001	-9.554309e+000	1.931515e+001	-8.659385e-001	-5.958228e+001	-2.679427e+001	-1.494429e+002
5650000000	-3.169138e+001	-7.335160e+001	-7.298818e-001	-8.606204e+001	-9.490912e+000	1.513359e+001	-4.243570e+001	-9.335836e+001
	-7.083742e-001	-8.609137e+001	-3.832815e+001	-4.433636e+001	-4.183388e+001	-9.707673e+001	-9.549013e+000	1.788980e+001
	-9.460510e+000	1.509540e+001	-4.064541e+001	-8.985069e+001	-2.603333e+001	-1.379357e+002	-8.653031e-001	-6.105344e+001
	-4.299989e+001	-8.801746e+001	-9.546179e+000	1.833721e+001	-8.647702e-001	-6.048081e+001	-2.669179e+001	-1.499587e+002
5662500000	-3.115174e+001	-6.245706e+001	-7.372753e-001	-8.707649e+001	-9.482383e+000	1.418754e+001	-4.177372e+001	-9.482971e+001
	-7.166000e-001	-8.710515e+001	-3.756484e+001	-1.969378e+001	-4.278212e+001	-9.594657e+001	-9.537894e+000	1.686977e+001
	-9.472033e+000	1.414085e+001	-4.167460e+001	-9.838841e+001	-2.594632e+001	-1.386149e+002	-8.580090e-001	-6.196465e+001
	-4.230748e+001	-8.617109e+001	-9.543515e+000	1.732420e+001	-8.582558e-001	-6.139381e+001	-2.629549e+001	-1.503928e+002
5675000000	-3.130133e+001	-4.988976e+001	-7.436735e-001	-8.805749e+001	-9.485669e+000	1.324498e+001	-4.168727e+001	-1.001931e+002
	-7.212998e-001	-8.807831e+001	-3.528227e+001	-1.069506e+001	-4.322193e+001	-9.251211e+001	-9.537680e+000	1.589236e+001
	-9.473107e+000	1.320482e+001	-4.354321e+001	-1.032826e+002	-2.559614e+001	-1.403027e+002	-8.516212e-001	-6.289503e+001
	-4.185445e+001	-8.757709e+001	-9.539365e+000	1.642739e+001	-8.520436e-001	-6.234330e+001	-2.577339e+001	-1.508170e+002
5687500000	-3.166440e+001	-3.684658e+001	-7.547233e-001	-8.902240e+001	-9.487484e+000	1.221631e+001	-4.195368e+001	-1.037737e+002
	-7.309904e-001	-8.905101e+001	-3.472825e+001	-1.105927e+001	-4.274131e+001	-8.561141e+001	-9.541563e+000	1.501589e+001
	-9.471864e+000	1.224926e+001	-4.533048e+001	-9.587405e+001	-2.514345e+001	-1.408944e+002	-8.576032e-001	-6.383764e+001
	-4.203275e+001	-9.251093e+001	-9.537968e+000	1.550565e+001	-8.532501e-001	-6.324890e+001	-2.535735e+001	-1.515152e+002
5700000000	-3.268013e+001	-2.756520e+001	-7.548936e-001	-8.994833e+001	-9.495155e+000	1.129147e+001	-4.265717e+001	-1.082844e+002
	-7.324101e-001	-8.998101e+001	-3.536797e+001	-2.060606e+001	-4.162013e+001	-8.676615e+001	-9.533529e+000	1.404244e+001
	-9.468295e+000	1.132254e+001	-4.571806e+001	-8.463711e+001	-2.475590e+001	-1.416380e+002	-8.576444e-001	-6.477137e+001
	-4.249794e+001	-1.011990e+002	-9.530906e+000	1.458232e+001	-8.500880e-001	-6.417153e+001	-2.527384e+001	-1.526818e+002
5712500000	-3.404724e+001	-3.044510e+001	-7.532054e-001	-9.090828e+001	-9.501785e+000	1.038224e+001	-4.373052e+001	-1.089019e+002
	-7.384753e-001	-9.093218e+001	-3.740798e+001	-3.980462e+001	-4.123229e+001	-9.338440e+001	-9.530763e+000	1.303750e+001
	-9.474511e+000	1.044914e+001	-4.299674e+001	-8.129136e+001	-2.465597e+001	-1.414540e+002	-8.604285e-001	-6.566635e+001
	-4.370321e+001	-1.060482e+002	-9.524822e+000	1.364351e+001	-8.493267e-001	-6.509448e+001	-2.546061e+001	-1.532787e+002
5725000000	-3.554152e+001	-4.577300e+001	-7.525892e-001	-9.186323e+001	-9.493896e+000	9.472575e+000	-4.399405e+001	-1.064908e+002
	-7.403056e-001	-9.188686e+001	-3.863123e+001	-5.305719e+001	-4.095137e+001	-9.965997e+001	-9.531697e+000	1.211095e+001
	-9.472806e+000	9.545364e+000	-4.137410e+001	-8.956702e+001	-2.477206e+001	-1.409028e+002	-8.545980e-001	-6.656912e+001
	-4.442282e+001	-1.082540e+002	-9.515322e+000	1.271546e+001	-8.469255e-001	-6.604228e+001	-2.583021e+001	-1.536353e+002
5737500000	-3.513399e+001	-6.905298e+001	-7.574253e-001	-9.292194e+001	-9.496841e+000	8.504857e+000	-4.389331e+001	-1.031517e+002
	-7.430908e-001	-9.290380e+001	-3.811962e+001	-5.349853e+001	-4.161952e+001	-1.054873e+002	-9.530388e+000	1.119615e+001
	-9.474267e+000	8.508313e+000	-4.071021e+001	-9.931408e+001	-2.503712e+001	-1.401341e+002	-8.467300e-001	-6.746408e+001
	-4.439874e+001	-1.051828e+002	-9.521451e+000	1.170325e+001	-8.442349e-001	-6.692122e+001	-2.618805e+001	-1.524892e+002
5750000000	-3.343731e+001	-7.943590e+001	-7.658327e-001	-9.394983e+001	-9.500716e+000	7.517361e+000	-4.319743e+001	-1.035932e+002
	-7.531207e-001	-9.391371e+001	-3.637343e+001	-4.105055e+001	-4.238294e+001	-1.080595e+002	-9.521781e+000	1.024264e+001
	-9.472529e+000	7.571582e+000	-4.099712e+001	-1.066832e+002	-2.542100e+001	-1.400421e+002	-8.420315e-001	-6.840855e+001
	-4.342418e+001	-9.862048e+001	-9.513430e+000	1.071134e+001	-8.362917e-001	-6.784151e+001	-2.631460e+001	-1.518530e+002
5762500000	-3.189611e+001	-7.477840e+001	-7.796546e-001	-9.492206e+001	-9.497673e+000	6.582253e+000	-4.253532e+001	-1.049652e+002
	-7.531366e-001	-9.488671e+001	-3.343163e+001	-3.060721e+001	-4.346882e+001	-1.009670e+002	-9.515624e+000	9.193966e+000
	-9.477228e+000	6.606251e+000	-4.290740e+001	-1.113907e+002	-2.564501e+001	-1.400610e+002	-8.379819e-001	-6.935203e+001
	-4.269086e+001	-1.010136e+002	-9.512413e+000	9.731378e+000	-8.333671e-001	-6.878035e+001	-2.620220e+001	-1.522125e+002
5775000000	-3.094793e+001	-6.442043e+001	-7.850791e-001	-9.586357e+001	-9.504354e+000	5.687137e+000	-4.196612e+001	-1.106375e+002
	-7.658677e-001	-9.588091e+001	-3.171480e+001	-2.701590e+001	-4.373581e+001	-9.528312e+001	-9.516508e+000	8.226636e+000
	-9.483104e+000	5.687708e+000	-4.468937e+001	-1.038533e+002	-2.567034e+001	-1.430014e+002	-8.320440e-001	-7.030092e+001
	-4.224948e+001	-1.047185e+002	-9.517843e+000	8.756869e+000	-8.322045e-001	-6.971141e+001	-2.592624e+001	-1.549187e+002
5787500000	-3.015606e+001	-5.325210e+001	-7.908701e-001	-9.677896e+001	-9.499939e+000	4.699464e+000	-4.213156e+001	-1.174573e+002
	-7.721323e-001	-9.685821e+001	-3.152477e+001	-2.425775e+001	-4.263123e+001	-9.094365e+001	-9.522498e+000	7.275431e+000
	-9.486016e+000	4.759460e+000	-4.492437e+001	-9.465282e+001	-2.539806e+001	-1.469599e+002	-8.324793e-001	-7.122993e+001
	-4.216250e+001	-1.084213e+002	-9.517493e+000	7.843587e+000	-8.285825e-001	-7.064949e+001	-2.572963e+001	-1.591712e+002
5800000000	-2.979609e+001	-4.490457e+001	-7.858903e-001	-9.775212e+001	-9.497756e+000	3.821260e+000	-4.334069e+001	-1.218959e+002
	-7.697436e-001	-9.778093e+001	-3.312390e+001	-2.276169e+001	-4.136827e+001	-9.678278e+001	-9.523017e+000	6.341202e+000
	-9.481293e+000	3.881220e+000	-4.313209e+001	-9.019236e+001	-2.500299e+001	-1.500668e+002	-8.380366e-001	-7.216687e+001
	-4.319535e+001	-1.138765e+002	-9.510720e+000	6.909195e+000	-8.252552e-001	-7.156642e+001	-2.566673e+001	-1.621476e+002
5812500000	-3.036709e+001	-4.223376e+001	-7.829967e-001	-9.871328e+001	-9.500883e+000	2.873045e+000	-4.460358e+001	-1.207414e+002
	-7.762472e-001	-9.872202e+001	-3.558194e+001	-2.122226e+001	-4.062108e+001	-1.047206e+002	-9.521123e+000	5.370846e+000
	-9.478768e+000	2.982629e+000	-4.219563e+001	-9.552288e+001	-2.456746e+001	-1.525764e+002	-8.367905e-001	-7.307671e+001
	-4.406928e+001	-1.153177e+002	-9.507011e+000	5.934929e+000	-8.291666e-001	-7.251437e+001	-2.563451e+001	-1.636823e+002
5825000000	-3.164604e+001	-4.484802e+001	-7.847181e-001	-9.966138e+001	-9.500612e+000	1.947897e+000	-4.517440e+001	-1.142202e+002
	-7.760852e-001	-9.966612e+001	-3.808378e+001	-2.251234e+001	-4.030196e+001	-1.135770e+002	-9.518167e+000	4.395018e+000
	-9.476169e+000	2.022788e+000	-4.160371e+001	-1.072642e+002	-2.434450e+001	-1.518157e+002	-8.403510e-001	-7.403254e+001
	-4.491181e+001	-1.102245e+002	-9.505654e+000	4.962093e+000	-8.282385e-001	-7.345609e+001	-2.568562e+001	-1.641060e+002
5837500000	-3.337700e+001	-5.525807e+001	-7.916529e-001	-1.006544e+002	-9.494623e+000	1.006983e+000	-4.431864e+001	-1.090016e+002
	-7.763503e-001	-1.006165e+002	-3.846096e+001	-3.310624e+001	-4.093770e+001	-1.195797e+002	-9.524620e+000	3.474788e+000
	-9.469497e+000	1.080450e+000	-4.144699e+001	-1.150004e+002	-2.434420e+001	-1.493093e+002	-8.332263e-001	-7.493139e+001
	-4.416410e+001	-1.070522e+002	-9.511542e+000	4.005332e+000	-8.272725e-001	-7.438001e+001	-2.562336e+001	-1.624548e+002
5850000000	-3.431368e+001	-6.447979e+001	-7.984770e-001	-1.016348e+002	-9.494585e+000	6.351777e-002	-4.333458e+001	-1.109805e+002
	-7.852106e-001	-1.015810e+002	-3.554706e+001	-4.452846e+001	-4.194358e+001	-1.237428e+002	-9.521130e+000	2.518225e+000
	-9.474843e+000	9.966202e-002	-4.263712e+001	-1.199540e+002	-2.464614e+001	-1.467981e+002	-8.285179e-001	-7.587088e+001
	-4.288939e+001	-1.095396e+002	-9.504384e+000	3.052667e+000	-8.265008e-001	-7.532350e+001	-2.548919e+001	-1.605120e+002
5862500000	-3.358672e+001	-6.732673e+001	-8.028467e-001	-1.026111e+002	-9.499442e+000	-9.184862e-001	-4.206664e+001	-1.172401e+002
	-7.840636e-001	-1.025809e+002	-3.252373e+001	-4.619921e+001	-4.384366e+001	-1.178398e+002	-9.522355e+000	1.542781e+000
	-9.471044e+000	-8.602391e-001	-4.386210e+001	-1.161271e+002	-2.497843e+001	-1.445284e+002	-8.228547e-001	-7.682528e+001
	-4.234826e+001	-1.139676e+002	-9.511947e+000	2.036967e+000	-8.199155e-001	-7.627288e+001	-2.526879e+001	-1.599330e+002
5875000000	-3.167161e+001	-6.436648e+001	-8.117390e-001	-1.035654e+002	-9.493214e+000	-1.804539e+000	-4.200531e+001	-1.246714e+002
	-7.929599e-001	-1.035717e+002	-3.074317e+001	-4.357938e+001	-4.445674e+001	-1.060731e+002	-9.517046e+000	5.319598e-001
	-9.477677e+000	-1.795221e+000	-4.438311e+001	-1.088293e+002	-2.548981e+001	-1.453438e+002	-8.188743e-001	-7.779555e+001
	-4.278384e+001	-1.202654e+002	-9.510583e+000	1.062089e+000	-8.166628e-001	-7.718837e+001	-2.521469e+001	-1.606464e+002
5887500000	-2.983809e+001	-5.987393e+001	-8.118757e-001	-1.045447e+002	-9.488853e+000	-2.734870e+000	-4.307395e+001	-1.325596e+002
	-7.992966e-001	-1.045070e+002	-2.996078e+001	-3.978017e+001	-4.309055e+001	-9.990789e+001	-9.530453e+000	-4.508164e-001
	-9.475093e+000	-2.735247e+000	-4.372690e+001	-1.026142e+002	-2.566919e+001	-1.496082e+002	-8.242585e-001	-7.877865e+001
	-4.358079e+001	-1.241754e+002	-9.515940e+000	8.426895e-002	-8.164429e-001	-7.812663e+001	-2.544756e+001	-1.632175e+002
5900000000	-2.897826e+001	-5.789519e+001	-8.193058e-001	-1.054770e+002	-9.489834e+000	-3.692498e+000	-4.420321e+001	-1.319739e+002
	-8.052371e-001	-1.054524e+002	-3.046923e+001	-3.242765e+001	-4.170712e+001	-1.007780e+002	-9.535609e+000	-1.392643e+000
	-9.479070e+000	-3.647264e+000	-4.250843e+001	-1.039352e+002	-2.548573e+001	-1.550905e+002	-8.288677e-001	-7.973077e+001
	-4.470683e+001	-1.245510e+002	-9.527291e+000	-8.742918e-001	-8.141275e-001	-7.911465e+001	-2.572568e+001	-1.661740e+002
5912500000	-2.899813e+001	-5.807199e+001	-8.107974e-001	-1.064190e+002	-9.484045e+000	-4.632035e+000	-4.520717e+001	-1.264418e+002
	-8.038606e-001	-1.064063e+002	-3.194031e+001	-2.421539e+001	-4.089195e+001	-1.102584e+002	-9.544360e+000	-2.317732e+000
	-9.467270e+000	-4.600922e+000	-4.223831e+001	-1.105484e+002	-2.512179e+001	-1.598262e+002	-8.334655e-001	-8.065862e+001
	-4.523003e+001	-1.198365e+002	-9.524283e+000	-1.786462e+000	-8.178490e-001	-8.003364e+001	-2.609807e+001	-1.691823e+002
5925000000	-3.004623e+001	-5.738796e+001	-8.065724e-001	-1.073693e+002	-9.490568e+000	-5.561343e+000	-4.479018e+001	-1.197023e+002
	-8.048648e-001	-1.073155e+002	-3.336086e+001	-1.522093e+001	-4.042420e+001	-1.212449e+002	-9.540412e+000	-3.283797e+000
	-9.466110e+000	-5.569703e+000	-4.203207e+001	-1.195188e+002	-2.458803e+001	-1.613223e+002	-8.359563e-001	-8.157847e+001
	-4.433009e+001	-1.173615e+002	-9.527224e+000	-2.691904e+000	-8.220567e-001	-8.100100e+001	-2.621079e+001	-1.708743e+002
5937500000	-3.125004e+001	-5.591028e+001	-8.056922e-001	-1.083512e+002	-9.481570e+000	-6.505590e+000	-4.361743e+001	-1.195950e+002
	-8.027665e-001	-1.082609e+002	-3.481441e+001	-1.524874e+001	-4.078527e+001	-1.313356e+002	-9.550952e+000	-4.178771e+000
	-9.468680e+000	-6.490509e+000	-4.211771e+001	-1.258338e+002	-2.415635e+001	-1.600800e+002	-8.357584e-001	-8.248317e+001
	-4.339279e+001	-1.197692e+002	-9.530761e+000	-3.651284e+000	-8.274878e-001	-8.192308e+001	-2.593850e+001	-1.718646e+002
5950000000	-3.203549e+001	-5.564363e+001	-8.076124e-001	-1.093155e+002	-9.488790e+000	-7.499345e+000	-4.295151e+001	-1.253789e+002
	-8.019753e-001	-1.092337e+002	-3.515416e+001	-2.985982e+001	-4.205727e+001	-1.345787e+002	-9.554471e+000	-5.074703e+000
	-9.464743e+000	-7.435866e+000	-4.258660e+001	-1.287159e+002	-2.401296e+001	-1.567152e+002	-8.370436e-001	-8.341604e+001
	-4.288072e+001	-1.247040e+002	-9.530915e+000	-4.598524e+000	-8.356984e-001	-8.286801e+001	-2.546146e+001	-1.718675e+002
5962500000	-3.173336e+001	-5.546118e+001	-8.207211e-001	-1.102985e+002	-9.491318e+000	-8.440635e+000	-4.272227e+001	-1.352181e+002
	-8.058960e-001	-1.102063e+002	-3.340872e+001	-4.848946e+001	-4.334822e+001	-1.317946e+002	-9.551194e+000	-6.042252e+000
	-9.462271e+000	-8.415497e+000	-4.374346e+001	-1.251069e+002	-2.424693e+001	-1.535638e+002	-8.375997e-001	-8.438056e+001
	-4.301933e+001	-1.304217e+002	-9.539259e+000	-5.590563e+000	-8.362696e-001	-8.375547e+001	-2.504231e+001	-1.725886e+002
5975000000	-3.057799e+001	-6.025935e+001	-8.270602e-001	-1.112464e+002	-9.494815e+000	-9.364386e+000	-4.363525e+001	-1.407917e+002
	-8.154709e-001	-1.111693e+002	-3.127401e+001	-5.586745e+001	-4.400645e+001	-1.215504e+002	-9.558307e+000	-6.975141e+000
	-9.471775e+000	-9.385730e+000	-4.395149e+001	-1.189541e+002	-2.468294e+001	-1.516918e+002	-8.322020e-001	-8.533550e+001
	-4.392263e+001	-1.333636e+002	-9.540103e+000	-6.549768e+000	-8.376219e-001	-8.468823e+001	-2.475068e+001	-1.718268e+002
5987500000	-2.941181e+001	-6.530464e+001	-8.349233e-001	-1.122047e+002	-9.490619e+000	-1.029618e+001	-4.435774e+001	-1.433581e+002
	-8.203345e-001	-1.121146e+002	-3.006459e+001	-5.482781e+001	-4.317663e+001	-1.115280e+002	-9.566816e+000	-7.935917e+000
	-9.468113e+000	-1.037146e+001	-4.330496e+001	-1.143885e+002	-2.535968e+001	-1.527156e+002	-8.383934e-001	-8.630919e+001
	-4.542228e+001	-1.283776e+002	-9.557942e+000	-7.515558e+000	-8.300849e-001	-8.563592e+001	-2.479843e+001	-1.720059e+002
6000000000	-2.884060e+001	-6.791449e+001	-8.311615e-001	-1.131065e+002	-9.482528e+000	-1.129555e+001	-4.515060e+001	-1.360509e+002
	-8.188422e-001	-1.130548e+002	-2.959069e+001	-4.865533e+001	-4.194980e+001	-1.131582e+002	-9.575875e+000	-8.871534e+000
	-9.467174e+000	-1.130450e+001	-4.266188e+001	-1.162553e+002	-2.583120e+001	-1.573933e+002	-8.463118e-001	-8.728469e+001
	-4.537678e+001	-1.276396e+002	-9.559328e+000	-8.431058e+000	-8.273634e-001	-8.660124e+001	-2.516415e+001	-1.720744e+002
6012500000	-2.900348e+001	-6.881517e+001	-8.270594e-001	-1.140466e+002	-9.478822e+000	-1.224236e+001	-4.493392e+001	-1.307390e+002
	-8.159740e-001	-1.139951e+002	-2.985758e+001	-3.718875e+001	-4.125973e+001	-1.205554e+002	-9.570900e+000	-9.795383e+000
	-9.469242e+000	-1.221785e+001	-4.246376e+001	-1.210559e+002	-2.584627e+001	-1.630969e+002	-8.494236e-001	-8.818317e+001
	-4.520650e+001	-1.256345e+002	-9.560477e+000	-9.338861e+000	-8.299133e-001	-8.755003e+001	-2.569919e+001	-1.717563e+002
6025000000	-2.939201e+001	-6.590854e+001	-8.195515e-001	-1.150194e+002	-9.487457e+000	-1.314568e+001	-4.406230e+001	-1.293352e+002
	-8.113608e-001	-1.149345e+002	-3.022257e+001	-2.714182e+001	-4.129822e+001	-1.286672e+002	-9.578236e+000	-1.072215e+001
	-9.466714e+000	-1.316229e+001	-4.251595e+001	-1.281619e+002	-2.521537e+001	-1.674199e+002	-8.546245e-001	-8.909680e+001
	-4.454040e+001	-1.268804e+002	-9.560735e+000	-1.026345e+001	-8.407637e-001	-8.849575e+001	-2.614665e+001	-1.724854e+002
6037500000	-2.982246e+001	-6.138883e+001	-8.163282e-001	-1.160004e+002	-9.482621e+000	-1.414183e+001	-4.348539e+001	-1.345291e+002
	-8.109073e-001	-1.158811e+002	-3.076747e+001	-2.075123e+001	-4.169357e+001	-1.346695e+002	-9.576888e+000	-1.162406e+001
	-9.467611e+000	-1.411495e+001	-4.291815e+001	-1.324012e+002	-2.446679e+001	-1.689962e+002	-8.626632e-001	-9.001854e+001
	-4.373670e+001	-1.334641e+002	-9.563346e+000	-1.119604e+001	-8.490118e-001	-8.941768e+001	-2.614199e+001	-1.740458e+002
6050000000	-2.995751e+001	-5.858121e+001	-8.174166e-001	-1.169644e+002	-9.488683e+000	-1.506804e+001	-4.378230e+001	-1.383769e+002
	-8.038676e-001	-1.168743e+002	-3.190513e+001	-2.591656e+001	-4.234123e+001	-1.349152e+002	-9.574336e+000	-1.255402e+001
	-9.466989e+000	-1.509773e+001	-4.335798e+001	-1.334472e+002	-2.391690e+001	-1.677381e+002	-8.615885e-001	-9.092771e+001
	-4.372465e+001	-1.375100e+002	-9.568776e+000	-1.209391e+001	-8.571024e-001	-9.033354e+001	-2.593599e+001	-1.771981e+002
6062500000	-2.952055e+001	-5.948558e+001	-8.299644e-001	-1.179232e+002	-9.495702e+000	-1.605230e+001	-4.395593e+001	-1.450765e+002
	-8.100438e-001	-1.177821e+002	-3.266975e+001	-4.142136e+001	-4.258427e+001	-1.324099e+002	-9.583183e+000	-1.349372e+001
	-9.475044e+000	-1.607464e+001	-4.400869e+001	-1.289208e+002	-2.370522e+001	-1.644341e+002	-8.665457e-001	-9.186279e+001
	-4.366321e+001	-1.402323e+002	-9.575364e+000	-1.304051e+001	-8.654198e-001	-9.124111e+001	-2.547496e+001	1.786605e+002
6075000000	-2.910950e+001	-6.293440e+001	-8.281781e-001	-1.188452e+002	-9.498895e+000	-1.703027e+001	-4.438724e+001	-1.480999e+002
	-8.179409e-001	-1.187412e+002	-3.218133e+001	-5.606879e+001	-4.262637e+001	-1.284669e+002	-9.586341e+000	-1.442637e+001
	-9.479332e+000	-1.703393e+001	-4.357072e+001	-1.237701e+002	-2.385941e+001	-1.609981e+002	-8.707455e-001	-9.282197e+001
	-4.464137e+001	-1.391941e+002	-9.577197e+000	-1.396047e+001	-8.655273e-001	-9.212826e+001	-2.513394e+001	1.764256e+002
6087500000	-2.895524e+001	-6.887568e+001	-8.326656e-001	-1.197711e+002	-9.492284e+000	-1.795909e+001	-4.497055e+001	-1.457048e+002
	-8.139943e-001	-1.196904e+002	-3.104182e+001	-6.132462e+001	-4.208921e+001	-1.284900e+002	-9.591177e+000	-1.533752e+001
	-9.489711e+000	-1.800029e+001	-4.290023e+001	-1.243780e+002	-2.449706e+001	-1.593781e+002	-8.773741e-001	-9.372430e+001
	-4.528652e+001	-1.363373e+002	-9.581818e+000	-1.487263e+001	-8.682400e-001	-9.304998e+001	-2.495873e+001	1.758429e+002
6100000000	-2.922924e+001	-7.199205e+001	-8.249567e-001	-1.207375e+002	-9.498695e+000	-1.889882e+001	-4.506320e+001	-1.441784e+002
	-8.125728e-001	-1.206457e+002	-3.021317e+001	-5.834742e+001	-4.167168e+001	-1.328617e+002	-9.594378e+000	-1.626082e+001
	-9.484022e+000	-1.890302e+001	-4.199983e+001	-1.269075e+002	-2.525307e+001	-1.605801e+002	-8.861251e-001	-9.469465e+001
	-4.505475e+001	-1.324100e+002	-9.581010e+000	-1.580717e+001	-8.660147e-001	-9.395888e+001	-2.497134e+001	1.776521e+002
6112500000	-2.946380e+001	-7.447826e+001	-8.242360e-001	-1.216843e+002	-9.494260e+000	-1.981367e+001	-4.470175e+001	-1.417338e+002
	-8.108306e-001	-1.215687e+002	-2.941710e+001	-4.934849e+001	-4.139830e+001	-1.359211e+002	-9.595679e+000	-1.721109e+001
	-9.489684e+000	-1.980122e+001	-4.201940e+001	-1.353341e+002	-2.570777e+001	-1.655265e+002	-8.907757e-001	-9.558293e+001
	-4.483593e+001	-1.296069e+002	-9.588687e+000	-1.672457e+001	-8.667450e-001	-9.488091e+001	-2.517371e+001	1.799163e+002
6125000000	-2.978147e+001	-7.211470e+001	-8.188509e-001	-1.226575e+002	-9.494849e+000	-2.080699e+001	-4.434876e+001	-1.420990e+002
	-8.091500e-001	-1.225404e+002	-2.882895e+001	-4.063015e+001	-4.182435e+001	-1.405818e+002	-9.595845e+000	-1.812850e+001
	-9.495620e+000	-2.072094e+001	-4.234230e+001	-1.422507e+002	-2.575589e+001	-1.718681e+002	-8.946362e-001	-9.649205e+001
	-4.409499e+001	-1.360591e+002	-9.592196e+000	-1.762858e+001	-8.727198e-001	-9.585522e+001	-2.531175e+001	-1.778738e+002
6137500000	-2.933376e+001	-6.872244e+001	-8.203061e-001	-1.236299e+002	-9.499945e+000	-2.177152e+001	-4.402869e+001	-1.460589e+002
	-8.019737e-001	-1.234975e+002	-2.858480e+001	-3.543194e+001	-4.255568e+001	-1.421522e+002	-9.595670e+000	-1.910603e+001
	-9.490908e+000	-2.169544e+001	-4.329495e+001	-1.469463e+002	-2.520709e+001	-1.758540e+002	-8.982556e-001	-9.738044e+001
	-4.420785e+001	-1.434484e+002	-9.595554e+000	-1.857318e+001	-8.758794e-001	-9.676932e+001	-2.542894e+001	-1.779168e+002
6150000000	-2.880371e+001	-6.685089e+001	-8.186976e-001	-1.245713e+002	-9.507155e+000	-2.267394e+001	-4.357975e+001	-1.491068e+002
	-8.027945e-001	-1.244768e+002	-2.931352e+001	-3.463242e+001	-4.282577e+001	-1.407368e+002	-9.596736e+000	-1.996921e+001
	-9.495561e+000	-2.266196e+001	-4.402938e+001	-1.463656e+002	-2.452337e+001	-1.770565e+002	-9.020882e-001	-9.824658e+001
	-4.387849e+001	-1.496895e+002	-9.597551e+000	-1.945776e+001	-8.870769e-001	-9.765369e+001	-2.554078e+001	1.787952e+002
6162500000	-2.818706e+001	-6.788757e+001	-8.154051e-001	-1.255674e+002	-9.507011e+000	-2.365770e+001	-4.403112e+001	-1.559087e+002
	-7.948395e-001	-1.254325e+002	-3.070064e+001	-3.944552e+001	-4.251087e+001	-1.368069e+002	-9.600676e+000	-2.090090e+001
	-9.497390e+000	-2.359024e+001	-4.424973e+001	-1.380926e+002	-2.390373e+001	-1.751467e+002	-8.997674e-001	-9.915665e+001
	-4.431783e+001	-1.523476e+002	-9.593664e+000	-2.044428e+001	-8.951013e-001	-9.854935e+001	-2.573379e+001	1.740441e+002
6175000000	-2.785465e+001	-6.980068e+001	-8.155228e-001	-1.265401e+002	-9.515633e+000	-2.463324e+001	-4.501962e+001	-1.592731e+002
	-7.929601e-001	-1.263893e+002	-3.178378e+001	-4.753902e+001	-4.222517e+001	-1.379579e+002	-9.599799e+000	-2.179444e+001
	-9.493825e+000	-2.452921e+001	-4.343370e+001	-1.333738e+002	-2.372633e+001	-1.720173e+002	-9.041208e-001	-1.000627e+002
	-4.529620e+001	-1.522415e+002	-9.592102e+000	-2.127717e+001	-9.093811e-001	-9.948122e+001	-2.586714e+001	1.703527e+002
6187500000	-2.809086e+001	-7.281799e+001	-8.166282e-001	-1.274897e+002	-9.521189e+000	-2.555236e+001	-4.588106e+001	-1.578341e+002
	-7.905172e-001	-1.273947e+002	-3.160100e+001	-5.695632e+001	-4.178682e+001	-1.384609e+002	-9.595949e+000	-2.272404e+001
	-9.499191e+000	-2.551186e+001	-4.270136e+001	-1.355897e+002	-2.384101e+001	-1.685838e+002	-9.037680e-001	-1.010034e+002
	-4.567513e+001	-1.445401e+002	-9.599259e+000	-2.219654e+001	-9.044160e-001	-1.003162e+002	-2.579588e+001	1.686982e+002
6200000000	-2.857462e+001	-7.516644e+001	-8.206649e-001	-1.284292e+002	-9.531080e+000	-2.645425e+001	-4.620609e+001	-1.506324e+002
	-7.935962e-001	-1.283224e+002	-3.078896e+001	-5.884839e+001	-4.143144e+001	-1.438489e+002	-9.596185e+000	-2.368128e+001
	-9.509429e+000	-2.646171e+001	-4.219707e+001	-1.394056e+002	-2.436557e+001	-1.671504e+002	-9.106360e-001	-1.019480e+002
	-4.548086e+001	-1.371298e+002	-9.603183e+000	-2.313065e+001	-9.057996e-001	-1.011846e+002	-2.553333e+001	1.700370e+002
6212500000	-2.913305e+001	-7.590201e+001	-8.189811e-001	-1.293688e+002	-9.526407e+000	-2.738899e+001	-4.513516e+001	-1.475598e+002
	-7.876550e-001	-1.292964e+002	-2.949853e+001	-5.657708e+001	-4.135600e+001	-1.508317e+002	-9.599913e+000	-2.461744e+001
	-9.510329e+000	-2.735304e+001	-4.212190e+001	-1.470077e+002	-2.502982e+001	-1.694718e+002	-9.146584e-001	-1.028585e+002
	-4.450062e+001	-1.360756e+002	-9.605070e+000	-2.406989e+001	-8.988327e-001	-1.021068e+002	-2.521943e+001	1.716574e+002
6225000000	-2.957205e+001	-7.471685e+001	-8.140590e-001	-1.303029e+002	-9.521066e+000	-2.830969e+001	-4.381531e+001	-1.506740e+002
	-7.897670e-001	-1.302417e+002	-2.850670e+001	-5.254790e+001	-4.202296e+001	-1.530920e+002	-9.605906e+000	-2.555847e+001
	-9.506330e+000	-2.827092e+001	-4.213646e+001	-1.512063e+002	-2.560631e+001	-1.733316e+002	-9.199479e-001	-1.037447e+002
	-4.331865e+001	-1.421729e+002	-9.607015e+000	-2.500414e+001	-8.968799e-001	-1.030210e+002	-2.484285e+001	1.725295e+002
6237500000	-2.897628e+001	-7.293092e+001	-8.116533e-001	-1.313124e+002	-9.521558e+000	-2.927092e+001	-4.351942e+001	-1.563948e+002
	-7.818839e-001	-1.312216e+002	-2.800853e+001	-4.821463e+001	-4.324039e+001	-1.534330e+002	-9.614986e+000	-2.644141e+001
	-9.504893e+000	-2.917171e+001	-4.309599e+001	-1.553192e+002	-2.567288e+001	-1.787156e+002	-9.243259e-001	-1.046176e+002
	-4.305874e+001	-1.543319e+002	-9.605865e+000	-2.594244e+001	-8.991572e-001	-1.039795e+002	-2.484139e+001	1.729366e+002
6250000000	-2.820916e+001	-7.395023e+001	-8.042339e-001	-1.323402e+002	-9.527368e+000	-3.023058e+001	-4.353355e+001	-1.644453e+002
	-7.773046e-001	-1.321921e+002	-2.818404e+001	-4.549409e+001	-4.383884e+001	-1.479318e+002	-9.606908e+000	-2.739674e+001
	-9.499195e+000	-3.013794e+001	-4.354820e+001	-1.522023e+002	-2.516753e+001	1.776578e+002	-9.200918e-001	-1.054786e+002
	-4.348700e+001	-1.640477e+002	-9.610526e+000	-2.684790e+001	-9.027852e-001	-1.048811e+002	-2.513952e+001	1.710942e+002
6262500000	-2.735468e+001	-7.480141e+001	-8.015259e-001	-1.333300e+002	-9.530128e+000	-3.120748e+001	-4.469214e+001	-1.729996e+002
	-7.654052e-001	-1.331945e+002	-2.893091e+001	-4.573418e+001	-4.323001e+001	-1.410473e+002	-9.604440e+000	-2.835329e+001
	-9.497728e+000	-3.112287e+001	-4.365027e+001	-1.470874e+002	-2.450171e+001	1.767391e+002	-9.192648e-001	-1.063998e+002
	-4.493727e+001	-1.733950e+002	-9.607521e+000	-2.780701e+001	-9.140225e-001	-1.058154e+002	-2.568786e+001	1.685535e+002
6275000000	-2.698864e+001	-7.722362e+001	-8.044997e-001	-1.342700e+002	-9.525881e+000	-3.215789e+001	-4.664186e+001	-1.738312e+002
	-7.689773e-001	-1.341823e+002	-2.976868e+001	-4.906492e+001	-4.261944e+001	-1.398903e+002	-9.602361e+000	-2.929074e+001
	-9.506943e+000	-3.204670e+001	-4.340732e+001	-1.438249e+002	-2.401832e+001	1.787616e+002	-9.194581e-001	-1.073339e+002
	-4.701579e+001	-1.689271e+002	-9.611761e+000	-2.868770e+001	-9.173461e-001	-1.066951e+002	-2.617718e+001	1.661509e+002
6287500000	-2.720500e+001	-7.889034e+001	-8.120172e-001	-1.352786e+002	-9.539494e+000	-3.313108e+001	-4.797223e+001	-1.599583e+002
	-7.677292e-001	-1.351488e+002	-3.059054e+001	-5.403540e+001	-4.170139e+001	-1.454557e+002	-9.610916e+000	-3.025741e+001
	-9.514171e+000	-3.300134e+001	-4.297606e+001	-1.447353e+002	-2.385470e+001	-1.790880e+002	-9.204652e-001	-1.082431e+002
	-4.748794e+001	-1.485525e+002	-9.614270e+000	-2.960204e+001	-9.264164e-001	-1.075705e+002	-2.635068e+001	1.651495e+002
6300000000	-2.809946e+001	-7.921354e+001	-8.097771e-001	-1.361336e+002	-9.551659e+000	-3.406033e+001	-4.700234e+001	-1.493445e+002
	-7.709205e-001	-1.361026e+002	-3.056908e+001	-5.993074e+001	-4.111483e+001	-1.514606e+002	-9.613405e+000	-3.115642e+001
	-9.524317e+000	-3.397894e+001	-4.274993e+001	-1.464259e+002	-2.402837e+001	-1.765683e+002	-9.260340e-001	-1.091710e+002
	-4.507051e+001	-1.391893e+002	-9.614660e+000	-3.050466e+001	-9.223750e-001	-1.084233e+002	-2.599283e+001	1.643646e+002
6312500000	-2.898791e+001	-7.711175e+001	-8.037261e-001	-1.371049e+002	-9.559539e+000	-3.492222e+001	-4.468718e+001	-1.507783e+002
	-7.628214e-001	-1.370633e+002	-2.963287e+001	-6.165170e+001	-4.128115e+001	-1.606454e+002	-9.607976e+000	-3.212949e+001
	-9.523061e+000	-3.487653e+001	-4.243646e+001	-1.519885e+002	-2.453759e+001	-1.763161e+002	-9.348985e-001	-1.100620e+002
	-4.359583e+001	-1.426882e+002	-9.614933e+000	-3.146665e+001	-9.178368e-001	-1.093064e+002	-2.541494e+001	1.634685e+002
6325000000	-2.953767e+001	-7.611410e+001	-8.023477e-001	-1.381011e+002	-9.554867e+000	-3.584598e+001	-4.346716e+001	-1.586630e+002
	-7.601770e-001	-1.380419e+002	-2.873911e+001	-5.994222e+001	-4.215707e+001	-1.670669e+002	-9.618623e+000	-3.303405e+001
	-9.525622e+000	-3.580581e+001	-4.251349e+001	-1.600129e+002	-2.525034e+001	-1.778261e+002	-9.360736e-001	-1.109740e+002
	-4.253461e+001	-1.538591e+002	-9.615866e+000	-3.239522e+001	-9.157554e-001	-1.102602e+002	-2.485572e+001	1.632891e+002
6337500000	-2.904715e+001	-7.729759e+001	-7.973006e-001	-1.390738e+002	-9.552499e+000	-3.679411e+001	-4.295020e+001	-1.700285e+002
	-7.573554e-001	-1.390398e+002	-2.787316e+001	-5.819801e+001	-4.304114e+001	-1.665201e+002	-9.618136e+000	-3.394271e+001
	-9.519401e+000	-3.673175e+001	-4.301891e+001	-1.637546e+002	-2.563928e+001	1.784984e+002	-9.386123e-001	-1.118207e+002
	-4.246051e+001	-1.660406e+002	-9.619630e+000	-3.337220e+001	-9.178944e-001	-1.111721e+002	-2.465164e+001	1.624156e+002
6350000000	-2.800999e+001	-8.128412e+001	-7.923727e-001	-1.400602e+002	-9.552568e+000	-3.775851e+001	-4.374498e+001	-1.799612e+002
	-7.567533e-001	-1.400200e+002	-2.754370e+001	-5.687190e+001	-4.400817e+001	-1.584281e+002	-9.615831e+000	-3.489076e+001
	-9.528967e+000	-3.767457e+001	-4.339381e+001	-1.624528e+002	-2.559532e+001	1.744451e+002	-9.337058e-001	-1.127180e+002
	-4.371714e+001	-1.787904e+002	-9.623382e+000	-3.427797e+001	-9.204712e-001	-1.120910e+002	-2.485106e+001	1.622779e+002
6362500000	-2.703309e+001	-8.509479e+001	-7.907877e-001	-1.410184e+002	-9.555486e+000	-3.870954e+001	-4.567227e+001	1.733213e+002
	-7.523039e-001	-1.410359e+002	-2.789855e+001	-5.583053e+001	-4.345075e+001	-1.512927e+002	-9.616401e+000	-3.581111e+001
	-9.521270e+000	-3.865755e+001	-4.336539e+001	-1.572069e+002	-2.505342e+001	1.712201e+002	-9.331557e-001	-1.136235e+002
	-4.579903e+001	1.764757e+002	-9.622513e+000	-3.518939e+001	-9.194340e-001	-1.129958e+002	-2.539464e+001	1.625528e+002
6375000000	-2.650905e+001	-8.808763e+001	-7.912867e-001	-1.420311e+002	-9.556079e+000	-3.961732e+001	-4.772704e+001	-1.795598e+002
	-7.514089e-001	-1.420036e+002	-2.872568e+001	-5.563428e+001	-4.258598e+001	-1.474439e+002	-9.620457e+000	-3.676366e+001
	-9.527107e+000	-3.961410e+001	-4.274578e+001	-1.539676e+002	-2.445888e+001	1.706832e+002	-9.303398e-001	-1.145152e+002
	-4.775624e+001	-1.740141e+002	-9.625628e+000	-3.614603e+001	-9.220426e-001	-1.138828e+002	-2.601798e+001	1.633307e+002
6387500000	-2.658218e+001	-8.764121e+001	-7.951266e-001	-1.430053e+002	-9.561594e+000	-4.059063e+001	-4.808037e+001	-1.646391e+002
	-7.497428e-001	-1.430002e+002	-2.954905e+001	-5.723674e+001	-4.165631e+001	-1.513442e+002	-9.627098e+000	-3.769668e+001
	-9.534533e+000	-4.060056e+001	-4.205461e+001	-1.542329e+002	-2.400677e+001	1.717167e+002	-9.357562e-001	-1.154452e+002
	-4.750862e+001	-1.542041e+002	-9.629072e+000	-3.709388e+001	-9.290732e-001	-1.147512e+002	-2.636459e+001	1.627258e+002
6400000000	-2.719332e+001	-8.463607e+001	-7.929899e-001	-1.439885e+002	-9.567190e+000	-4.151586e+001	-4.648010e+001	-1.560014e+002
	-7.422195e-001	-1.439744e+002	-2.972442e+001	-5.936912e+001	-4.115802e+001	-1.571266e+002	-9.626026e+000	-3.859447e+001
	-9.532396e+000	-4.154689e+001	-4.175302e+001	-1.588157e+002	-2.387027e+001	1.736471e+002	-9.385003e-001	-1.163536e+002
	-4.537020e+001	-1.463778e+002	-9.632397e+000	-3.801653e+001	-9.299303e-001	-1.156200e+002	-2.633889e+001	1.611185e+002
6412500000	-2.810548e+001	-7.979980e+001	-7.930717e-001	-1.449692e+002	-9.573674e+000	-4.246357e+001	-4.428693e+001	-1.622016e+002
	-7.444318e-001	-1.449799e+002	-2.917092e+001	-6.388952e+001	-4.106825e+001	-1.677751e+002	-9.628994e+000	-3.956219e+001
	-9.540094e+000	-4.249328e+001	-4.241765e+001	-1.635774e+002	-2.420550e+001	1.741580e+002	-9.440314e-001	-1.172477e+002
	-4.383877e+001	-1.535012e+002	-9.633726e+000	-3.896973e+001	-9.334273e-001	-1.165194e+002	-2.580509e+001	1.582477e+002
6425000000	-2.846932e+001	-7.665431e+001	-7.931897e-001	-1.459381e+002	-9.585631e+000	-4.340969e+001	-4.344783e+001	-1.723329e+002
	-7.453150e-001	-1.459723e+002	-2.831361e+001	-6.597386e+001	-4.179390e+001	-1.737398e+002	-9.636321e+000	-4.049740e+001
	-9.544889e+000	-4.342633e+001	-4.294657e+001	-1.714268e+002	-2.474465e+001	1.746111e+002	-9.495573e-001	-1.181228e+002
	-4.312315e+001	-1.651503e+002	-9.639924e+000	-3.988759e+001	-9.291432e-001	-1.174093e+002	-2.520778e+001	1.547162e+002
6437500000	-2.865516e+001	-7.942284e+001	-7.929869e-001	-1.469291e+002	-9.577375e+000	-4.429371e+001	-4.398998e+001	1.756716e+002
	-7.455637e-001	-1.469431e+002	-2.756296e+001	-6.805196e+001	-4.226865e+001	-1.785500e+002	-9.639191e+000	-4.142906e+001
	-9.545741e+000	-4.437348e+001	-4.370803e+001	-1.741772e+002	-2.541211e+001	1.730547e+002	-9.489939e-001	-1.189789e+002
	-4.343416e+001	-1.746045e+002	-9.644552e+000	-4.084797e+001	-9.250203e-001	-1.182848e+002	-2.486367e+001	1.526972e+002
6450000000	-2.814615e+001	-8.645178e+001	-7.935000e-001	-1.478894e+002	-9.577167e+000	-4.529581e+001	-4.496464e+001	1.672412e+002
	-7.487072e-001	-1.479251e+002	-2.731346e+001	-6.739798e+001	-4.305976e+001	-1.771885e+002	-9.650601e+000	-4.234761e+001
	-9.542816e+000	-4.525013e+001	-4.377240e+001	-1.710529e+002	-2.587526e+001	1.700724e+002	-9.482581e-001	-1.198735e+002
	-4.432344e+001	1.694581e+002	-9.642251e+000	-4.176820e+001	-9.213048e-001	-1.192076e+002	-2.481243e+001	1.518445e+002
6462500000	-2.729728e+001	-9.374471e+001	-7.837359e-001	-1.488738e+002	-9.584801e+000	-4.619684e+001	-4.637721e+001	1.670424e+002
	-7.399215e-001	-1.489079e+002	-2.744703e+001	-6.584707e+001	-4.386323e+001	-1.705988e+002	-9.651469e+000	-4.326201e+001
	-9.541137e+000	-4.620001e+001	-4.377069e+001	-1.634095e+002	-2.580574e+001	1.672186e+002	-9.364315e-001	-1.207427e+002
	-4.596157e+001	1.667383e+002	-9.643414e+000	-4.269917e+001	-9.208644e-001	-1.200987e+002	-2.500225e+001	1.529402e+002
6475000000	-2.642314e+001	-9.772310e+001	-7.882319e-001	-1.498770e+002	-9.586265e+000	-4.713140e+001	-4.836249e+001	1.761017e+002
	-7.344212e-001	-1.498863e+002	-2.785430e+001	-6.266964e+001	-4.340093e+001	-1.629174e+002	-9.649644e+000	-4.416614e+001
	-9.537537e+000	-4.718468e+001	-4.281463e+001	-1.618907e+002	-2.527245e+001	1.648332e+002	-9.351054e-001	-1.216180e+002
	-4.845014e+001	1.707856e+002	-9.647414e+000	-4.363974e+001	-9.171355e-001	-1.210157e+002	-2.545470e+001	1.558804e+002
6487500000	-2.629970e+001	-9.680216e+001	-7.901485e-001	-1.509172e+002	-9.591051e+000	-4.812184e+001	-4.785315e+001	-1.710166e+002
	-7.363214e-001	-1.508940e+002	-2.833022e+001	-6.077780e+001	-4.285441e+001	-1.591719e+002	-9.644226e+000	-4.510514e+001
	-9.543693e+000	-4.817735e+001	-4.234982e+001	-1.641822e+002	-2.468562e+001	1.641928e+002	-9.286540e-001	-1.225883e+002
	-4.801381e+001	-1.725098e+002	-9.657192e+000	-4.459370e+001	-9.185587e-001	-1.219681e+002	-2.580039e+001	1.589959e+002
6500000000	-2.646144e+001	-9.345451e+001	-7.974566e-001	-1.518974e+002	-9.591530e+000	-4.908528e+001	-4.643571e+001	-1.694633e+002
	-7.368174e-001	-1.519120e+002	-2.850727e+001	-6.252509e+001	-4.165271e+001	-1.622304e+002	-9.647826e+000	-4.607650e+001
	-9.549289e+000	-4.914832e+001	-4.221270e+001	-1.687053e+002	-2.413211e+001	1.640204e+002	-9.248719e-001	-1.234872e+002
	-4.587858e+001	-1.605856e+002	-9.651966e+000	-4.551331e+001	-9.206375e-001	-1.228556e+002	-2.598823e+001	1.591159e+002
6512500000	-2.683203e+001	-8.678328e+001	-8.009560e-001	-1.528616e+002	-9.607307e+000	-5.004011e+001	-4.448344e+001	-1.726034e+002
	-7.400971e-001	-1.529039e+002	-2.848789e+001	-6.728891e+001	-4.142730e+001	-1.690846e+002	-9.660294e+000	-4.697910e+001
	-9.562758e+000	-5.012400e+001	-4.264158e+001	-1.740554e+002	-2.412181e+001	1.640676e+002	-9.277423e-001	-1.243915e+002
	-4.384172e+001	-1.623948e+002	-9.654382e+000	-4.641652e+001	-9.261712e-001	-1.236963e+002	-2.589816e+001	1.563483e+002
6525000000	-2.726403e+001	-8.175271e+001	-8.030891e-001	-1.537523e+002	-9.623201e+000	-5.098952e+001	-4.395173e+001	1.781785e+002
	-7.432566e-001	-1.538580e+002	-2.814045e+001	-7.358839e+001	-4.128054e+001	-1.785088e+002	-9.661930e+000	-4.790400e+001
	-9.571360e+000	-5.098743e+001	-4.369092e+001	-1.738710e+002	-2.433039e+001	1.641068e+002	-9.349786e-001	-1.252608e+002
	-4.294892e+001	-1.726497e+002	-9.656389e+000	-4.733651e+001	-9.196195e-001	-1.245492e+002	-2.578046e+001	1.507171e+002
6537500000	-2.781970e+001	-8.162114e+001	-8.041237e-001	-1.547186e+002	-9.620211e+000	-5.182533e+001	-4.397517e+001	1.687966e+002
	-7.428072e-001	-1.548062e+002	-2.787976e+001	-7.690661e+001	-4.171314e+001	1.739509e+002	-9.667506e+000	-4.886637e+001
	-9.573770e+000	-5.194530e+001	-4.383661e+001	-1.757883e+002	-2.494924e+001	1.641264e+002	-9.352511e-001	-1.261023e+002
	-4.296038e+001	1.762809e+002	-9.657271e+000	-4.824369e+001	-9.143975e-001	-1.254078e+002	-2.566229e+001	1.450256e+002
6550000000	-2.809219e+001	-8.754156e+001	-7.941185e-001	-1.556848e+002	-9.610404e+000	-5.277981e+001	-4.491285e+001	1.581591e+002
	-7.383470e-001	-1.557677e+002	-2.754531e+001	-7.655495e+001	-4.261887e+001	1.698329e+002	-9.669875e+000	-4.973414e+001
	-9.564689e+000	-5.289503e+001	-4.384585e+001	-1.761478e+002	-2.559229e+001	1.639295e+002	-9.301347e-001	-1.269904e+002
	-4.423841e+001	1.669755e+002	-9.650163e+000	-4.918526e+001	-9.112243e-001	-1.263570e+002	-2.560959e+001	1.419531e+002
6562500000	-2.778436e+001	-9.790844e+001	-7.899735e-001	-1.567108e+002	-9.616706e+000	-5.376379e+001	-4.693761e+001	1.538118e+002
	-7.377263e-001	-1.567488e+002	-2.732237e+001	-7.306235e+001	-4.362048e+001	1.742435e+002	-9.672895e+000	-5.065913e+001
	-9.560315e+000	-5.382994e+001	-4.318316e+001	-1.760884e+002	-2.577383e+001	1.628419e+002	-9.216658e-001	-1.279028e+002
	-4.645069e+001	1.568134e+002	-9.660284e+000	-5.019263e+001	-9.001578e-001	-1.272763e+002	-2.566840e+001	1.417219e+002
6575000000	-2.716409e+001	-1.057914e+002	-7.949835e-001	-1.577225e+002	-9.617488e+000	-5.471779e+001	-4.903477e+001	1.661076e+002
	-7.364879e-001	-1.577607e+002	-2.722778e+001	-6.932817e+001	-4.411840e+001	-1.746093e+002	-9.660945e+000	-5.158899e+001
	-9.564391e+000	-5.481008e+001	-4.271288e+001	-1.781162e+002	-2.554797e+001	1.615652e+002	-9.121378e-001	-1.288343e+002
	-4.910403e+001	1.654837e+002	-9.663683e+000	-5.114093e+001	-8.961550e-001	-1.282644e+002	-2.563050e+001	1.451294e+002
6587500000	-2.651169e+001	-1.072237e+002	-8.003790e-001	-1.586787e+002	-9.630057e+000	-5.566831e+001	-4.917649e+001	-1.754211e+002
	-7.387653e-001	-1.587696e+002	-2.720940e+001	-6.708858e+001	-4.299472e+001	-1.659704e+002	-9.660538e+000	-5.256266e+001
	-9.573326e+000	-5.581483e+001	-4.261394e+001	-1.784142e+002	-2.502085e+001	1.587684e+002	-9.103350e-001	-1.297596e+002
	-4.887124e+001	-1.759586e+002	-9.669360e+000	-5.207586e+001	-9.047555e-001	-1.291857e+002	-2.551422e+001	1.494654e+002
6600000000	-2.622158e+001	-1.039582e+002	-8.077731e-001	-1.596834e+002	-9.636295e+000	-5.664960e+001	-4.617615e+001	-1.709984e+002
	-7.395295e-001	-1.597545e+002	-2.746632e+001	-6.809588e+001	-4.199478e+001	-1.681636e+002	-9.670964e+000	-5.353425e+001
	-9.584100e+000	-5.676592e+001	-4.253916e+001	-1.796616e+002	-2.449970e+001	1.562955e+002	-9.070666e-001	-1.306697e+002
	-4.597753e+001	-1.662575e+002	-9.667275e+000	-5.298178e+001	-9.056673e-001	-1.300938e+002	-2.527468e+001	1.521877e+002
6612500000	-2.619663e+001	-9.729916e+001	-8.095149e-001	-1.606034e+002	-9.651829e+000	-5.755742e+001	-4.472155e+001	-1.787161e+002
	-7.456522e-001	-1.607473e+002	-2.772173e+001	-7.291199e+001	-4.140580e+001	-1.758049e+002	-9.678783e+000	-5.442465e+001
	-9.595237e+000	-5.769260e+001	-4.302065e+001	-1.799021e+002	-2.425673e+001	1.547160e+002	-9.105879e-001	-1.315617e+002
	-4.388278e+001	-1.734084e+002	-9.673066e+000	-5.391723e+001	-9.029591e-001	-1.309502e+002	-2.527952e+001	1.509142e+002
6625000000	-2.628065e+001	-9.003062e+001	-8.075482e-001	-1.615594e+002	-9.661800e+000	-5.846921e+001	-4.353553e+001	1.680630e+002
	-7.395539e-001	-1.616988e+002	-2.811011e+001	-7.776852e+001	-4.131085e+001	1.775149e+002	-9.679078e+000	-5.538541e+001
	-9.593465e+000	-5.859729e+001	-4.298173e+001	1.782758e+002	-2.444276e+001	1.546481e+002	-9.129574e-001	-1.324639e+002
	-4.281154e+001	1.738111e+002	-9.668687e+000	-5.483149e+001	-8.987047e-001	-1.318089e+002	-2.546212e+001	1.472012e+002
6637500000	-2.663831e+001	-8.666517e+001	-8.078856e-001	-1.624990e+002	-9.665306e+000	-5.944866e+001	-4.381289e+001	1.537334e+002
	-7.468865e-001	-1.627168e+002	-2.822268e+001	-8.270028e+001	-4.174593e+001	1.680051e+002	-9.684985e+000	-5.631571e+001
	-9.602239e+000	-5.953392e+001	-4.273246e+001	1.755920e+002	-2.492268e+001	1.552858e+002	-9.148939e-001	-1.333739e+002
	-4.331092e+001	1.604018e+002	-9.674000e+000	-5.574867e+001	-8.895607e-001	-1.327347e+002	-2.593160e+001	1.422462e+002
6650000000	-2.719841e+001	-8.941654e+001	-8.031967e-001	-1.634999e+002	-9.657993e+000	-6.034949e+001	-4.541653e+001	1.415228e+002
	-7.408383e-001	-1.636682e+002	-2.786229e+001	-8.344862e+001	-4.230007e+001	1.629496e+002	-9.686760e+000	-5.723515e+001
	-9.607268e+000	-6.050613e+001	-4.285231e+001	1.728140e+002	-2.539046e+001	1.563397e+002	-9.066030e-001	-1.342400e+002
	-4.471103e+001	1.490408e+002	-9.668906e+000	-5.668799e+001	-8.859399e-001	-1.336208e+002	-2.639728e+001	1.381964e+002
6662500000	-2.771953e+001	-9.780299e+001	-8.054224e-001	-1.644569e+002	-9.664409e+000	-6.127402e+001	-4.825513e+001	1.360967e+002
	-7.423328e-001	-1.646548e+002	-2.744710e+001	-8.102503e+001	-4.289160e+001	1.675281e+002	-9.694824e+000	-5.817389e+001
	-9.611782e+000	-6.141019e+001	-4.266687e+001	1.702380e+002	-2.555202e+001	1.568777e+002	-9.034430e-001	-1.351484e+002
	-4.745103e+001	1.478388e+002	-9.675328e+000	-5.767413e+001	-8.794641e-001	-1.345601e+002	-2.663930e+001	1.363418e+002
6675000000	-2.779527e+001	-1.089716e+002	-8.044446e-001	-1.654249e+002	-9.664320e+000	-6.222894e+001	-5.042318e+001	1.581034e+002
	-7.433797e-001	-1.656065e+002	-2.683558e+001	-7.726774e+001	-4.328420e+001	1.710216e+002	-9.694925e+000	-5.907828e+001
	-9.610837e+000	-6.239245e+001	-4.285673e+001	1.699326e+002	-2.550493e+001	1.559050e+002	-8.931088e-001	-1.360545e+002
	-4.915942e+001	1.679323e+002	-9.679748e+000	-5.862604e+001	-8.732986e-001	-1.355277e+002	-2.632858e+001	1.374588e+002
6687500000	-2.736271e+001	-1.154618e+002	-8.062990e-001	-1.664085e+002	-9.679701e+000	-6.317211e+001	-4.819190e+001	-1.768614e+002
	-7.478619e-001	-1.665733e+002	-2.659971e+001	-7.526788e+001	-4.316628e+001	1.774669e+002	-9.693570e+000	-6.004204e+001
	-9.618103e+000	-6.334841e+001	-4.268705e+001	1.702337e+002	-2.519604e+001	1.530341e+002	-8.912738e-001	-1.369866e+002
	-4.783820e+001	-1.725270e+002	-9.685824e+000	-5.956058e+001	-8.790881e-001	-1.364434e+002	-2.578636e+001	1.397030e+002
6700000000	-2.683098e+001	-1.135615e+002	-8.109259e-001	-1.673734e+002	-9.679047e+000	-6.411187e+001	-4.525398e+001	-1.790534e+002
	-7.398218e-001	-1.675355e+002	-2.669907e+001	-7.548184e+001	-4.280372e+001	-1.770545e+002	-9.692250e+000	-6.100102e+001
	-9.623891e+000	-6.427454e+001	-4.252726e+001	1.720992e+002	-2.482633e+001	1.495209e+002	-8.871989e-001	-1.379246e+002
	-4.510220e+001	-1.782654e+002	-9.684863e+000	-6.053360e+001	-8.739763e-001	-1.373948e+002	-2.522149e+001	1.408536e+002
6712500000	-2.631030e+001	-1.077304e+002	-8.088421e-001	-1.683312e+002	-9.687898e+000	-6.504761e+001	-4.353129e+001	1.668346e+002
	-7.446596e-001	-1.685445e+002	-2.725372e+001	-7.819687e+001	-4.213339e+001	-1.795892e+002	-9.692057e+000	-6.196527e+001
	-9.633100e+000	-6.520085e+001	-4.234361e+001	1.704202e+002	-2.470029e+001	1.464638e+002	-8.818788e-001	-1.388406e+002
	-4.373478e+001	1.704663e+002	-9.687031e+000	-6.147314e+001	-8.763833e-001	-1.382977e+002	-2.495033e+001	1.404813e+002
6725000000	-2.578648e+001	-1.005337e+002	-8.111138e-001	-1.692637e+002	-9.693567e+000	-6.597821e+001	-4.343912e+001	1.520015e+002
	-7.519373e-001	-1.695383e+002	-2.794669e+001	-8.241146e+001	-4.148843e+001	1.743001e+002	-9.699594e+000	-6.291889e+001
	-9.643159e+000	-6.614168e+001	-4.241984e+001	1.670782e+002	-2.478946e+001	1.453060e+002	-8.863994e-001	-1.397835e+002
	-4.346592e+001	1.573383e+002	-9.693592e+000	-6.234514e+001	-8.723003e-001	-1.391837e+002	-2.509961e+001	1.396344e+002
6737500000	-2.571704e+001	-9.661612e+001	-8.136337e-001	-1.702116e+002	-9.704469e+000	-6.690053e+001	-4.478491e+001	1.375555e+002
	-7.534482e-001	-1.704928e+002	-2.838020e+001	-8.755202e+001	-4.118509e+001	1.656558e+002	-9.702656e+000	-6.385518e+001
	-9.657953e+000	-6.708228e+001	-4.265115e+001	1.653493e+002	-2.509509e+001	1.465731e+002	-8.861297e-001	-1.406812e+002
	-4.409395e+001	1.455395e+002	-9.694205e+000	-6.324527e+001	-8.710132e-001	-1.400636e+002	-2.563482e+001	1.377422e+002
6750000000	-2.619223e+001	-9.684725e+001	-8.119746e-001	-1.711597e+002	-9.707837e+000	-6.783695e+001	-4.711409e+001	1.328343e+002
	-7.540455e-001	-1.714308e+002	-2.821888e+001	-9.037875e+001	-4.093795e+001	1.534696e+002	-9.710672e+000	-6.480437e+001
	-9.655562e+000	-6.796069e+001	-4.266375e+001	1.642909e+002	-2.549426e+001	1.478793e+002	-8.858727e-001	-1.415425e+002
	-4.597228e+001	1.364330e+002	-9.696852e+000	-6.420651e+001	-8.610666e-001	-1.409669e+002	-2.623466e+001	1.358469e+002
6762500000	-2.708757e+001	-1.019842e+002	-8.051889e-001	-1.721098e+002	-9.708616e+000	-6.870982e+001	-4.945075e+001	1.385673e+002
	-7.534355e-001	-1.723778e+002	-2.752468e+001	-8.855400e+001	-4.149079e+001	1.458978e+002	-9.722909e+000	-6.573305e+001
	-9.657321e+000	-6.889097e+001	-4.245714e+001	1.604919e+002	-2.578141e+001	1.497923e+002	-8.830927e-001	-1.424301e+002
	-4.837524e+001	1.426311e+002	-9.693974e+000	-6.520770e+001	-8.590313e-001	-1.418838e+002	-2.672979e+001	1.342868e+002
6775000000	-2.797566e+001	-1.101699e+002	-7.958573e-001	-1.731019e+002	-9.710318e+000	-6.969075e+001	-4.983923e+001	1.646816e+002
	-7.484789e-001	-1.733361e+002	-2.663213e+001	-8.671325e+001	-4.314586e+001	1.446397e+002	-9.720602e+000	-6.662077e+001
	-9.658407e+000	-6.987279e+001	-4.253368e+001	1.602528e+002	-2.587421e+001	1.498674e+002	-8.726688e-001	-1.433408e+002
	-4.841552e+001	1.613449e+002	-9.694979e+000	-6.615411e+001	-8.532314e-001	-1.428054e+002	-2.671897e+001	1.333497e+002
6787500000	-2.815435e+001	-1.178582e+002	-8.001900e-001	-1.740644e+002	-9.713404e+000	-7.063680e+001	-4.667767e+001	1.719995e+002
	-7.517293e-001	-1.743429e+002	-2.606245e+001	-8.459306e+001	-4.470844e+001	1.590405e+002	-9.708299e+000	-6.757243e+001
	-9.668565e+000	-7.084553e+001	-4.253244e+001	1.625894e+002	-2.557152e+001	1.477111e+002	-8.629333e-001	-1.442618e+002
	-4.694966e+001	1.741696e+002	-9.705516e+000	-6.708545e+001	-8.481692e-001	-1.437821e+002	-2.641762e+001	1.336140e+002
6800000000	-2.750788e+001	-1.186442e+002	-8.019595e-001	-1.750800e+002	-9.718099e+000	-7.152263e+001	-4.515793e+001	1.652854e+002
	-7.465136e-001	-1.753360e+002	-2.599332e+001	-8.381510e+001	-4.413667e+001	1.785897e+002	-9.705991e+000	-6.858204e+001
	-9.669993e+000	-7.177661e+001	-4.280568e+001	1.627297e+002	-2.535520e+001	1.439492e+002	-8.576310e-001	-1.452634e+002
	-4.531668e+001	1.695552e+002	-9.715602e+000	-6.808392e+001	-8.478860e-001	-1.447495e+002	-2.585402e+001	1.329084e+002
6812500000	-2.660154e+001	-1.155679e+002	-8.066498e-001	-1.760195e+002	-9.719700e+000	-7.251946e+001	-4.483973e+001	1.511387e+002
	-7.501368e-001	-1.763206e+002	-2.661176e+001	-8.406530e+001	-4.201372e+001	-1.779047e+002	-9.720487e+000	-6.963810e+001
	-9.681654e+000	-7.268816e+001	-4.269482e+001	1.637365e+002	-2.517939e+001	1.397744e+002	-8.575084e-001	-1.462334e+002
	-4.463834e+001	1.590506e+002	-9.727299e+000	-6.900473e+001	-8.539888e-001	-1.456806e+002	-2.551029e+001	1.314449e+002
6825000000	-2.568955e+001	-1.113365e+002	-8.002670e-001	-1.769713e+002	-9.729113e+000	-7.350120e+001	-4.516309e+001	1.381121e+002
	-7.547235e-001	-1.772690e+002	-2.761778e+001	-8.625980e+001	-4.022355e+001	1.753299e+002	-9.738681e+000	-7.047773e+001
	-9.693951e+000	-7.364053e+001	-4.265921e+001	1.631821e+002	-2.500631e+001	1.375892e+002	-8.634662e-001	-1.471281e+002
	-4.466897e+001	1.465989e+002	-9.721477e+000	-6.992508e+001	-8.563640e-001	-1.465716e+002	-2.536481e+001	1.303382e+002
6837500000	-2.528964e+001	-1.080877e+002	-7.975922e-001	-1.778679e+002	-9.747457e+000	-7.432854e+001	-4.665397e+001	1.304722e+002
	-7.515013e-001	-1.781771e+002	-2.857364e+001	-8.933928e+001	-3.966823e+001	1.605388e+002	-9.730112e+000	-7.144242e+001
	-9.702513e+000	-7.447986e+001	-4.183966e+001	1.610912e+002	-2.502272e+001	1.371993e+002	-8.646523e-001	-1.479958e+002
	-4.550785e+001	1.374149e+002	-9.720719e+000	-7.087158e+001	-8.520224e-001	-1.474240e+002	-2.551478e+001	1.299387e+002
6850000000	-2.557517e+001	-1.071831e+002	-7.928571e-001	-1.788323e+002	-9.748325e+000	-7.517209e+001	-4.855459e+001	1.253672e+002
	-7.420156e-001	-1.791520e+002	-2.862316e+001	-9.311918e+001	-4.010313e+001	1.431621e+002	-9.740020e+000	-7.241582e+001
	-9.690611e+000	-7.541830e+001	-4.174302e+001	1.540436e+002	-2.526687e+001	1.386600e+002	-8.593376e-001	-1.488561e+002
	-4.658072e+001	1.342875e+002	-9.722422e+000	-7.182214e+001	-8.476896e-001	-1.482814e+002	-2.620726e+001	1.296942e+002
6862500000	-2.642223e+001	-1.088913e+002	-7.812155e-001	-1.798503e+002	-9.730834e+000	-7.616735e+001	-5.041620e+001	1.366411e+002
	-7.391922e-001	1.798585e+002	-2.777816e+001	-9.569524e+001	-4.116528e+001	1.297184e+002	-9.746225e+000	-7.329600e+001
	-9.691175e+000	-7.637527e+001	-4.181764e+001	1.461943e+002	-2.567331e+001	1.401743e+002	-8.497987e-001	-1.497621e+002
	-4.822081e+001	1.358834e+002	-9.722819e+000	-7.277245e+001	-8.347182e-001	-1.491776e+002	-2.673336e+001	1.300918e+002
6875000000	-2.755500e+001	-1.129870e+002	-7.777041e-001	1.791491e+002	-9.742769e+000	-7.716161e+001	-4.911637e+001	1.553227e+002
	-7.338019e-001	1.788486e+002	-2.654503e+001	-9.713841e+001	-4.429881e+001	1.242697e+002	-9.735145e+000	-7.419254e+001
	-9.694421e+000	-7.739319e+001	-4.226215e+001	1.418730e+002	-2.609251e+001	1.430787e+002	-8.395903e-001	-1.506897e+002
	-4.798793e+001	1.527244e+002	-9.728299e+000	-7.377613e+001	-8.288107e-001	-1.501422e+002	-2.704354e+001	1.306206e+002
6887500000	-2.821262e+001	-1.182054e+002	-7.705702e-001	1.781541e+002	-9.737538e+000	-7.807027e+001	-4.743381e+001	1.568438e+002
	-7.410466e-001	1.778394e+002	-2.568054e+001	-9.707897e+001	-4.633285e+001	1.440985e+002	-9.731630e+000	-7.523454e+001
	-9.699953e+000	-7.836712e+001	-4.314792e+001	1.443984e+002	-2.613492e+001	1.414570e+002	-8.326001e-001	-1.516624e+002
	-4.681554e+001	1.634847e+002	-9.733341e+000	-7.472346e+001	-8.224308e-001	-1.511246e+002	-2.690942e+001	1.292457e+002
6900000000	-2.804104e+001	-1.212717e+002	-7.776319e-001	1.772017e+002	-9.735964e+000	-7.904805e+001	-4.580003e+001	1.520806e+002
	-7.458598e-001	1.768718e+002	-2.542811e+001	-9.485024e+001	-4.500834e+001	1.717753e+002	-9.744438e+000	-7.630768e+001
	-9.717548e+000	-7.930028e+001	-4.351366e+001	1.509809e+002	-2.615236e+001	1.386701e+002	-8.337075e-001	-1.526606e+002
	-4.517459e+001	1.625554e+002	-9.752449e+000	-7.567780e+001	-8.228115e-001	-1.521047e+002	-2.642749e+001	1.266884e+002
6912500000	-2.705683e+001	-1.215551e+002	-7.831352e-001	1.762197e+002	-9.748867e+000	-8.003892e+001	-4.512315e+001	1.408347e+002
	-7.440112e-001	1.758857e+002	-2.590010e+001	-9.280554e+001	-4.144128e+001	1.742911e+002	-9.753777e+000	-7.726218e+001
	-9.725995e+000	-8.025824e+001	-4.319982e+001	1.611994e+002	-2.587756e+001	1.335633e+002	-8.300916e-001	-1.536163e+002
	-4.479827e+001	1.548545e+002	-9.755498e+000	-7.662573e+001	-8.263321e-001	-1.530515e+002	-2.590616e+001	1.231215e+002
6925000000	-2.609123e+001	-1.197030e+002	-7.718579e-001	1.753041e+002	-9.759111e+000	-8.095852e+001	-4.519297e+001	1.310526e+002
	-7.392767e-001	1.749335e+002	-2.691108e+001	-8.887809e+001	-4.011482e+001	1.641189e+002	-9.756401e+000	-7.815134e+001
	-9.727291e+000	-8.112576e+001	-4.209888e+001	1.607968e+002	-2.549941e+001	1.296045e+002	-8.357065e-001	-1.545107e+002
	-4.438109e+001	1.402776e+002	-9.756288e+000	-7.756378e+001	-8.285761e-001	-1.539473e+002	-2.560671e+001	1.198809e+002
6937500000	-2.527243e+001	-1.187495e+002	-7.680049e-001	1.743227e+002	-9.768667e+000	-8.181894e+001	-4.618367e+001	1.194057e+002
	-7.374647e-001	1.739368e+002	-2.807280e+001	-8.754293e+001	-3.973803e+001	1.490841e+002	-9.767322e+000	-7.911877e+001
	-9.726626e+000	-8.209456e+001	-4.132057e+001	1.555941e+002	-2.525640e+001	1.270900e+002	-8.299205e-001	-1.554148e+002
	-4.598700e+001	1.267115e+002	-9.761274e+000	-7.855546e+001	-8.288628e-001	-1.548372e+002	-2.562027e+001	1.186328e+002
6950000000	-2.524955e+001	-1.181967e+002	-7.628027e-001	1.733525e+002	-9.769105e+000	-8.271739e+001	-4.882967e+001	1.137324e+002
	-7.353811e-001	1.729679e+002	-2.875572e+001	-9.116751e+001	-4.032776e+001	1.343484e+002	-9.772400e+000	-8.010094e+001
	-9.726995e+000	-8.301149e+001	-4.109215e+001	1.450520e+002	-2.515626e+001	1.278084e+002	-8.261601e-001	-1.562940e+002
	-4.784982e+001	1.192779e+002	-9.759049e+000	-7.950921e+001	-8.187354e-001	-1.557129e+002	-2.602465e+001	1.207653e+002
6962500000	-2.594245e+001	-1.187170e+002	-7.561877e-001	1.723172e+002	-9.759280e+000	-8.366203e+001	-5.139792e+001	1.252247e+002
	-7.329222e-001	1.719773e+002	-2.830705e+001	-9.962382e+001	-4.156361e+001	1.246560e+002	-9.779667e+000	-8.103598e+001
	-9.729608e+000	-8.398849e+001	-4.157693e+001	1.361835e+002	-2.539661e+001	1.309116e+002	-8.195543e-001	-1.572234e+002
	-4.974790e+001	1.295757e+002	-9.762224e+000	-8.050451e+001	-8.124925e-001	-1.566128e+002	-2.653130e+001	1.239537e+002
6975000000	-2.695835e+001	-1.196728e+002	-7.525132e-001	1.713360e+002	-9.760271e+000	-8.460411e+001	-5.022181e+001	1.486651e+002
	-7.326971e-001	1.709741e+002	-2.712885e+001	-1.073411e+002	-4.382446e+001	1.217673e+002	-9.772253e+000	-8.192562e+001
	-9.729993e+000	-8.496524e+001	-4.266809e+001	1.328557e+002	-2.586945e+001	1.346105e+002	-8.084214e-001	-1.581508e+002
	-4.992046e+001	1.479638e+002	-9.769789e+000	-8.145875e+001	-8.034078e-001	-1.575627e+002	-2.676887e+001	1.275292e+002
6987500000	-2.792906e+001	-1.201090e+002	-7.586012e-001	1.703465e+002	-9.761227e+000	-8.561730e+001	-4.716072e+001	1.587756e+002
	-7.338356e-001	1.699735e+002	-2.594401e+001	-1.102368e+002	-4.492666e+001	1.389283e+002	-9.776351e+000	-8.295441e+001
	-9.735917e+000	-8.594423e+001	-4.354465e+001	1.358453e+002	-2.608088e+001	1.359899e+002	-7.986067e-001	-1.591243e+002
	-4.706709e+001	1.536888e+002	-9.784517e+000	-8.242674e+001	-8.004136e-001	-1.585216e+002	-2.672036e+001	1.290979e+002
7000000000	-2.795638e+001	-1.223951e+002	-7.535005e-001	1.693861e+002	-9.764369e+000	-8.654974e+001	-4.484611e+001	1.492806e+002
	-7.349749e-001	1.689647e+002	-2.530694e+001	-1.086111e+002	-4.393315e+001	1.536355e+002	-9.787518e+000	-8.392972e+001
	-9.746964e+000	-8.690663e+001	-4.334935e+001	1.448743e+002	-2.639131e+001	1.337495e+002	-7.960976e-001	-1.601056e+002
	-4.500397e+001	1.523573e+002	-9.791731e+000	-8.336115e+001	-8.005858e-001	-1.594825e+002	-2.652749e+001	1.251499e+002
7012500000	-2.723384e+001	-1.252535e+002	-7.573764e-001	1.683775e+002	-9.769904e+000	-8.757523e+001	-4.449232e+001	1.345886e+002
	-7.358087e-001	1.680060e+002	-2.533974e+001	-1.041103e+002	-4.220110e+001	1.584899e+002	-9.796579e+000	-8.500276e+001
	-9.750655e+000	-8.784479e+001	-4.210016e+001	1.514921e+002	-2.648683e+001	1.282865e+002	-7.985563e-001	-1.610716e+002
	-4.424832e+001	1.425655e+002	-9.808227e+000	-8.434396e+001	-8.009079e-001	-1.604221e+002	-2.645781e+001	1.195078e+002
7025000000	-2.610853e+001	-1.270127e+002	-7.573866e-001	1.673875e+002	-9.770007e+000	-8.850783e+001	-4.568585e+001	1.201527e+002
	-7.417178e-001	1.670092e+002	-2.576553e+001	-9.711917e+001	-4.087616e+001	1.544247e+002	-9.814455e+000	-8.591489e+001
	-9.757547e+000	-8.876674e+001	-4.105563e+001	1.472486e+002	-2.639012e+001	1.211997e+002	-7.995902e-001	-1.620012e+002
	-4.527945e+001	1.286961e+002	-9.817496e+000	-8.528163e+001	-7.980376e-001	-1.613729e+002	-2.648926e+001	1.136455e+002
7037500000	-2.545924e+001	-1.280828e+002	-7.562480e-001	1.664095e+002	-9.781731e+000	-8.943658e+001	-4.821179e+001	1.069023e+002
	-7.470412e-001	1.660443e+002	-2.662078e+001	-9.179376e+001	-4.037263e+001	1.455868e+002	-9.822417e+000	-8.687166e+001
	-9.766567e+000	-8.968135e+001	-4.082747e+001	1.398799e+002	-2.588490e+001	1.167712e+002	-8.066691e-001	-1.629376e+002
	-4.650365e+001	1.167237e+002	-9.820841e+000	-8.624440e+001	-7.948437e-001	-1.622736e+002	-2.651124e+001	1.102821e+002
7050000000	-2.537393e+001	-1.290224e+002	-7.488819e-001	1.654293e+002	-9.787953e+000	-9.041802e+001	-5.258540e+001	9.827165e+001
	-7.505442e-001	1.650490e+002	-2.762766e+001	-9.125884e+001	-4.056219e+001	1.314478e+002	-9.832931e+000	-8.787000e+001
	-9.771664e+000	-9.066921e+001	-4.153817e+001	1.316509e+002	-2.573646e+001	1.155170e+002	-8.017505e-001	-1.638497e+002
	-4.911162e+001	1.183024e+002	-9.823110e+000	-8.720759e+001	-7.928392e-001	-1.631777e+002	-2.674417e+001	1.111104e+002
7062500000	-2.596931e+001	-1.283529e+002	-7.535634e-001	1.644511e+002	-9.788954e+000	-9.133648e+001	-5.409211e+001	1.379235e+002
	-7.461774e-001	1.640798e+002	-2.836883e+001	-9.737925e+001	-4.114094e+001	1.197370e+002	-9.844297e+000	-8.879106e+001
	-9.773938e+000	-9.160549e+001	-4.250301e+001	1.223478e+002	-2.551816e+001	1.185354e+002	-7.927143e-001	-1.647214e+002
	-5.015536e+001	1.340061e+002	-9.830358e+000	-8.821723e+001	-7.944226e-001	-1.641468e+002	-2.668229e+001	1.152579e+002
7075000000	-2.684748e+001	-1.261799e+002	-7.427258e-001	1.634493e+002	-9.790018e+000	-9.226308e+001	-5.013968e+001	1.558820e+002
	-7.406778e-001	1.630959e+002	-2.839158e+001	-1.108237e+002	-4.254745e+001	1.088510e+002	-9.855032e+000	-8.967263e+001
	-9.769677e+000	-9.255704e+001	-4.362456e+001	1.232552e+002	-2.572194e+001	1.239629e+002	-7.847117e-001	-1.656508e+002
	-4.810869e+001	1.429134e+002	-9.840625e+000	-8.916691e+001	-7.888146e-001	-1.650314e+002	-2.648931e+001	1.206376e+002
7087500000	-2.762649e+001	-1.239565e+002	-7.484026e-001	1.624533e+002	-9.797816e+000	-9.325631e+001	-4.634749e+001	1.417173e+002
	-7.436230e-001	1.620867e+002	-2.737648e+001	-1.200793e+002	-4.458820e+001	1.141539e+002	-9.846125e+000	-9.062527e+001
	-9.775982e+000	-9.359209e+001	-4.415702e+001	1.264195e+002	-2.582875e+001	1.287251e+002	-7.709185e-001	-1.666365e+002
	-4.587508e+001	1.428881e+002	-9.853533e+000	-9.013242e+001	-7.822361e-001	-1.659768e+002	-2.631711e+001	1.228263e+002
7100000000	-2.758613e+001	-1.245963e+002	-7.511075e-001	1.614908e+002	-9.795750e+000	-9.426926e+001	-4.471474e+001	1.302691e+002
	-7.413103e-001	1.610950e+002	-2.614750e+001	-1.227926e+002	-4.600549e+001	1.355844e+002	-9.848134e+000	-9.168686e+001
	-9.784379e+000	-9.462374e+001	-4.344377e+001	1.362450e+002	-2.639150e+001	1.299381e+002	-7.663279e-001	-1.676583e+002
	-4.486887e+001	1.350197e+002	-9.867189e+000	-9.105881e+001	-7.809185e-001	-1.669483e+002	-2.628614e+001	1.209146e+002
7112500000	-2.702835e+001	-1.288438e+002	-7.546218e-001	1.604934e+002	-9.790873e+000	-9.520095e+001	-4.487178e+001	1.140690e+002
	-7.571094e-001	1.601381e+002	-2.544880e+001	-1.191101e+002	-4.380487e+001	1.478045e+002	-9.868623e+000	-9.270711e+001
	-9.801274e+000	-9.557825e+001	-4.226949e+001	1.388447e+002	-2.704918e+001	1.255460e+002	-7.691595e-001	-1.686774e+002
	-4.501551e+001	1.262317e+002	-9.878254e+000	-9.202323e+001	-7.756366e-001	-1.678855e+002	-2.676757e+001	1.163301e+002
7125000000	-2.633907e+001	-1.341261e+002	-7.615772e-001	1.595624e+002	-9.799285e+000	-9.619242e+001	-4.622906e+001	9.940511e+001
	-7.608753e-001	1.591586e+002	-2.530057e+001	-1.121809e+002	-4.096595e+001	1.482996e+002	-9.893188e+000	-9.367879e+001
	-9.809535e+000	-9.655155e+001	-4.120540e+001	1.360549e+002	-2.740735e+001	1.163848e+002	-7.712646e-001	-1.696807e+002
	-4.611555e+001	1.193710e+002	-9.895761e+000	-9.288851e+001	-7.755915e-001	-1.688579e+002	-2.743252e+001	1.097567e+002
7137500000	-2.597181e+001	-1.381257e+002	-7.571450e-001	1.585975e+002	-9.811969e+000	-9.722705e+001	-4.912577e+001	9.228717e+001
	-7.728548e-001	1.582362e+002	-2.553998e+001	-1.044188e+002	-3.982151e+001	1.398950e+002	-9.905571e+000	-9.448176e+001
	-9.819353e+000	-9.752033e+001	-4.084569e+001	1.306121e+002	-2.716229e+001	1.070814e+002	-7.824600e-001	-1.705747e+002
	-4.843466e+001	1.101851e+002	-9.894194e+000	-9.387311e+001	-7.729319e-001	-1.698519e+002	-2.797767e+001	1.040260e+002
7150000000	-2.594410e+001	-1.388554e+002	-7.521476e-001	1.576839e+002	-9.827982e+000	-9.815516e+001	-5.302015e+001	1.159279e+002
	-7.721714e-001	1.572903e+002	-2.619677e+001	-9.793007e+001	-3.966206e+001	1.252630e+002	-9.914981e+000	-9.550171e+001
	-9.825025e+000	-9.844342e+001	-4.118140e+001	1.237848e+002	-2.656281e+001	1.018463e+002	-7.785470e-001	-1.714839e+002
	-5.031117e+001	1.212443e+002	-9.902778e+000	-9.483865e+001	-7.732685e-001	-1.707972e+002	-2.790542e+001	1.036193e+002
7162500000	-2.641217e+001	-1.368929e+002	-7.489123e-001	1.566595e+002	-9.829111e+000	-9.902517e+001	-5.119881e+001	1.377183e+002
	-7.657875e-001	1.563008e+002	-2.714537e+001	-9.732809e+001	-4.072439e+001	1.119311e+002	-9.933237e+000	-9.639611e+001
	-9.825627e+000	-9.941148e+001	-4.185166e+001	1.160795e+002	-2.594172e+001	1.030676e+002	-7.737444e-001	-1.724234e+002
	-4.897992e+001	1.305034e+002	-9.914384e+000	-9.586200e+001	-7.781197e-001	-1.717433e+002	-2.740030e+001	1.058621e+002
7175000000	-2.680621e+001	-1.323399e+002	-7.456240e-001	1.556451e+002	-9.833074e+000	-1.000344e+002	-4.869294e+001	1.433745e+002
	-7.626628e-001	1.553270e+002	-2.824716e+001	-1.050064e+002	-4.218521e+001	1.013147e+002	-9.927703e+000	-9.731140e+001
	-9.835823e+000	-1.003965e+002	-4.270240e+001	1.115222e+002	-2.571262e+001	1.074723e+002	-7.633211e-001	-1.733572e+002
	-4.722231e+001	1.322048e+002	-9.931725e+000	-9.680925e+001	-7.830214e-001	-1.726315e+002	-2.662482e+001	1.095471e+002
7187500000	-2.683186e+001	-1.286878e+002	-7.453120e-001	1.546521e+002	-9.834054e+000	-1.009600e+002	-4.654730e+001	1.296992e+002
	-7.674720e-001	1.543249e+002	-2.849721e+001	-1.183098e+002	-4.520020e+001	1.009615e+002	-9.925551e+000	-9.827002e+001
	-9.837413e+000	-1.014669e+002	-4.385291e+001	1.116483e+002	-2.582910e+001	1.152856e+002	-7.576029e-001	-1.743304e+002
	-4.605900e+001	1.242961e+002	-9.941021e+000	-9.770530e+001	-7.731991e-001	-1.735377e+002	-2.585641e+001	1.117723e+002
7200000000	-2.675573e+001	-1.301082e+002	-7.508700e-001	1.536874e+002	-9.837800e+000	-1.020014e+002	-4.622650e+001	1.151780e+002
	-7.671236e-001	1.533627e+002	-2.767517e+001	-1.289465e+002	-4.637462e+001	1.217526e+002	-9.930936e+000	-9.935314e+001
	-9.854503e+000	-1.023983e+002	-4.409362e+001	1.219307e+002	-2.601468e+001	1.216165e+002	-7.588033e-001	-1.753700e+002
	-4.568207e+001	1.240336e+002	-9.955160e+000	-9.866391e+001	-7.675955e-001	-1.745356e+002	-2.564256e+001	1.120141e+002
7212500000	-2.645688e+001	-1.349285e+002	-7.531408e-001	1.527390e+002	-9.839203e+000	-1.029910e+002	-4.647305e+001	1.056362e+002
	-7.698041e-001	1.524069e+002	-2.653539e+001	-1.311298e+002	-4.376527e+001	1.385535e+002	-9.961369e+000	-1.003096e+002
	-9.866006e+000	-1.034253e+002	-4.352994e+001	1.293053e+002	-2.675703e+001	1.239259e+002	-7.656457e-001	-1.763725e+002
	-4.665431e+001	1.165346e+002	-9.959574e+000	-9.960624e+001	-7.676536e-001	-1.755292e+002	-2.621339e+001	1.105429e+002
7225000000	-2.650064e+001	-1.414346e+002	-7.563807e-001	1.518272e+002	-9.857099e+000	-1.040342e+002	-4.731580e+001	9.903003e+001
	-7.702223e-001	1.515150e+002	-2.585810e+001	-1.266297e+002	-4.158213e+001	1.384907e+002	-9.980584e+000	-1.011941e+002
	-9.874461e+000	-1.043871e+002	-4.188436e+001	1.305366e+002	-2.774670e+001	1.197413e+002	-7.778592e-001	-1.773383e+002
	-4.753534e+001	1.159016e+002	-9.970432e+000	-1.005435e+002	-7.697610e-001	-1.765381e+002	-2.731343e+001	1.085031e+002
7237500000	-2.665028e+001	-1.451239e+002	-7.505788e-001	1.509147e+002	-9.873794e+000	-1.050460e+002	-4.841536e+001	9.933942e+001
	-7.746415e-001	1.505502e+002	-2.547044e+001	-1.185615e+002	-4.046128e+001	1.280713e+002	-9.986906e+000	-1.021405e+002
	-9.903596e+000	-1.053217e+002	-4.112996e+001	1.264947e+002	-2.849619e+001	1.072817e+002	-7.839338e-001	-1.783015e+002
	-4.884207e+001	1.149712e+002	-9.984681e+000	-1.014324e+002	-7.749958e-001	-1.775063e+002	-2.856739e+001	1.066381e+002
7250000000	-2.677082e+001	-1.449730e+002	-7.468067e-001	1.498974e+002	-9.889311e+000	-1.059774e+002	-4.937901e+001	1.109139e+002
	-7.710283e-001	1.496008e+002	-2.542086e+001	-1.114535e+002	-4.045540e+001	1.178033e+002	-9.997053e+000	-1.030797e+002
	-9.909601e+000	-1.062918e+002	-4.080836e+001	1.171210e+002	-2.814061e+001	9.468338e+001	-7.882839e-001	-1.792324e+002
	-5.011325e+001	1.157651e+002	-9.995581e+000	-1.024345e+002	-7.805543e-001	-1.784745e+002	-2.918870e+001	1.045838e+002
7262500000	-2.674193e+001	-1.420823e+002	-7.430867e-001	1.488983e+002	-9.900117e+000	-1.069327e+002	-4.899505e+001	1.165453e+002
	-7.744310e-001	1.485957e+002	-2.586004e+001	-1.070586e+002	-4.100566e+001	1.053087e+002	-1.001027e+001	-1.039789e+002
	-9.913977e+000	-1.072795e+002	-4.144268e+001	1.070994e+002	-2.733388e+001	8.857129e+001	-7.904329e-001	1.798381e+002
	-4.926369e+001	1.124998e+002	-1.000071e+001	-1.033946e+002	-7.897305e-001	-1.794037e+002	-2.881514e+001	1.026562e+002
7275000000	-2.652343e+001	-1.381386e+002	-7.422137e-001	1.479365e+002	-9.907152e+000	-1.078993e+002	-4.906963e+001	1.256707e+002
	-7.713655e-001	1.476610e+002	-2.684693e+001	-1.081810e+002	-4.249613e+001	9.780147e+001	-1.001641e+001	-1.049060e+002
	-9.928814e+000	-1.082667e+002	-4.229177e+001	9.934864e+001	-2.655844e+001	9.023751e+001	-7.915672e-001	1.788787e+002
	-4.775958e+001	1.118323e+002	-1.001787e+001	-1.043240e+002	-7.931842e-001	1.796455e+002	-2.757069e+001	1.004730e+002
7287500000	-2.626806e+001	-1.373172e+002	-7.389388e-001	1.469638e+002	-9.915147e+000	-1.088553e+002	-4.783894e+001	1.198445e+002
	-7.707608e-001	1.466711e+002	-2.803211e+001	-1.158182e+002	-4.412134e+001	9.998794e+001	-1.002029e+001	-1.058491e+002
	-9.942371e+000	-1.092179e+002	-4.383412e+001	9.692567e+001	-2.606573e+001	9.756429e+001	-7.920335e-001	1.779451e+002
	-4.675582e+001	1.109560e+002	-1.002693e+001	-1.052797e+002	-7.996134e-001	1.787243e+002	-2.637757e+001	9.762794e+001
7300000000	-2.629186e+001	-1.393428e+002	-7.348486e-001	1.459924e+002	-9.929965e+000	-1.098344e+002	-4.717193e+001	1.084111e+002
	-7.704007e-001	1.457566e+002	-2.843269e+001	-1.280313e+002	-4.494758e+001	1.090541e+002	-1.003477e+001	-1.068420e+002
	-9.960572e+000	-1.101383e+002	-4.498685e+001	1.110512e+002	-2.588209e+001	1.064493e+002	-7.975420e-001	1.769990e+002
	-4.531081e+001	1.086620e+002	-1.003742e+001	-1.062414e+002	-8.011060e-001	1.777633e+002	-2.588413e+001	9.644473e+001
7312500000	-2.647822e+001	-1.431300e+002	-7.315586e-001	1.450415e+002	-9.934149e+000	-1.107881e+002	-4.700580e+001	1.004937e+002
	-7.659207e-001	1.448045e+002	-2.797008e+001	-1.354295e+002	-4.380495e+001	1.199783e+002	-1.003806e+001	-1.077742e+002
	-9.971774e+000	-1.111369e+002	-4.355624e+001	1.222882e+002	-2.596748e+001	1.133642e+002	-7.975101e-001	1.760268e+002
	-4.565632e+001	1.046103e+002	-1.005473e+001	-1.071659e+002	-8.012053e-001	1.768670e+002	-2.606862e+001	9.780017e+001
7325000000	-2.688344e+001	-1.472977e+002	-7.298210e-001	1.440522e+002	-9.946329e+000	-1.117993e+002	-4.781606e+001	9.069028e+001
	-7.618354e-001	1.438486e+002	-2.696684e+001	-1.354697e+002	-4.249893e+001	1.222851e+002	-1.004876e+001	-1.087592e+002
	-9.982159e+000	-1.120896e+002	-4.167223e+001	1.248792e+002	-2.691850e+001	1.144704e+002	-8.077407e-001	1.750351e+002
	-4.720559e+001	1.043042e+002	-1.005753e+001	-1.081430e+002	-8.087718e-001	1.759097e+002	-2.687577e+001	1.015994e+002
7337500000	-2.726115e+001	-1.495771e+002	-7.319194e-001	1.430864e+002	-9.954631e+000	-1.127098e+002	-4.912779e+001	8.612382e+001
	-7.593320e-001	1.428592e+002	-2.605291e+001	-1.305274e+002	-4.134050e+001	1.187800e+002	-1.007148e+001	-1.097094e+002
	-1.000890e+001	-1.130627e+002	-4.066588e+001	1.165487e+002	-2.844241e+001	1.087087e+002	-8.223105e-001	1.740754e+002
	-4.900790e+001	1.091671e+002	-1.007214e+001	-1.090622e+002	-8.062229e-001	1.749571e+002	-2.786319e+001	1.085329e+002
7350000000	-2.728124e+001	-1.491807e+002	-7.293791e-001	1.421297e+002	-9.971010e+000	-1.136911e+002	-5.029367e+001	9.554384e+001
	-7.597268e-001	1.419175e+002	-2.544524e+001	-1.238941e+002	-4.139831e+001	1.093284e+002	-1.008524e+001	-1.106471e+002
	-1.001703e+001	-1.140355e+002	-4.057727e+001	1.039504e+002	-3.003394e+001	9.548416e+001	-8.393144e-001	1.731531e+002
	-5.094143e+001	1.135470e+002	-1.009083e+001	-1.100033e+002	-8.178186e-001	1.739543e+002	-2.849660e+001	1.120775e+002
7362500000	-2.710504e+001	-1.480139e+002	-7.279409e-001	1.411437e+002	-9.994955e+000	-1.147068e+002	-5.074854e+001	1.116242e+002
	-7.597371e-001	1.409593e+002	-2.543259e+001	-1.197334e+002	-4.173311e+001	1.022317e+002	-1.009136e+001	-1.115468e+002
	-1.004004e+001	-1.149188e+002	-4.137288e+001	9.381316e+001	-3.013646e+001	8.137849e+001	-8.526998e-001	1.722603e+002
	-4.953169e+001	1.157436e+002	-1.009453e+001	-1.109701e+002	-8.302525e-001	1.729975e+002	-2.882915e+001	1.096203e+002
7375000000	-2.666573e+001	-1.466541e+002	-7.204171e-001	1.401907e+002	-1.001475e+001	-1.156181e+002	-4.839981e+001	1.170072e+002
	-7.544266e-001	1.400053e+002	-2.613618e+001	-1.182732e+002	-4.249491e+001	9.359224e+001	-1.010440e+001	-1.124849e+002
	-1.004873e+001	-1.158189e+002	-4.305266e+001	8.872809e+001	-2.887959e+001	7.655776e+001	-8.559381e-001	1.713860e+002
	-4.775606e+001	1.090748e+002	-1.011253e+001	-1.119152e+002	-8.420438e-001	1.720424e+002	-2.869455e+001	9.939433e+001
7387500000	-2.627790e+001	-1.468200e+002	-7.143714e-001	1.391821e+002	-1.002748e+001	-1.165016e+002	-4.720726e+001	1.121097e+002
	-7.518050e-001	1.390399e+002	-2.736235e+001	-1.205856e+002	-4.372424e+001	9.207003e+001	-1.011799e+001	-1.133981e+002
	-1.005752e+001	-1.167860e+002	-4.470979e+001	9.386362e+001	-2.772302e+001	8.097985e+001	-8.510459e-001	1.705134e+002
	-4.645389e+001	9.701528e+001	-1.012442e+001	-1.129213e+002	-8.535029e-001	1.711765e+002	-2.815693e+001	8.826143e+001
7400000000	-2.624842e+001	-1.483679e+002	-7.077641e-001	1.382299e+002	-1.003520e+001	-1.174253e+002	-4.692723e+001	9.755517e+001
	-7.473049e-001	1.380584e+002	-2.854915e+001	-1.269287e+002	-4.413536e+001	1.003591e+002	-1.011780e+001	-1.143619e+002
	-1.006993e+001	-1.177179e+002	-4.459000e+001	1.061639e+002	-2.655706e+001	8.936747e+001	-8.487829e-001	1.695894e+002
	-4.564761e+001	8.845351e+001	-1.014170e+001	-1.138050e+002	-8.659342e-001	1.703304e+002	-2.771682e+001	8.105473e+001
7412500000	-2.661999e+001	-1.507979e+002	-7.100435e-001	1.372023e+002	-1.003913e+001	-1.183384e+002	-4.800385e+001	8.269788e+001
	-7.387495e-001	1.370801e+002	-2.879976e+001	-1.349593e+002	-4.300752e+001	1.092855e+002	-1.013083e+001	-1.153909e+002
	-1.007475e+001	-1.186610e+002	-4.246173e+001	1.157562e+002	-2.597015e+001	9.628291e+001	-8.508299e-001	1.686340e+002
	-4.609240e+001	8.442361e+001	-1.015962e+001	-1.147528e+002	-8.664280e-001	1.694761e+002	-2.745816e+001	8.125579e+001
7425000000	-2.708085e+001	-1.536922e+002	-7.120532e-001	1.362202e+002	-1.004542e+001	-1.193104e+002	-5.073040e+001	7.497321e+001
	-7.413927e-001	1.360799e+002	-2.804747e+001	-1.383609e+002	-4.181301e+001	1.110331e+002	-1.015075e+001	-1.163649e+002
	-1.009333e+001	-1.196117e+002	-4.097472e+001	1.113180e+002	-2.626067e+001	1.007384e+002	-8.615104e-001	1.676859e+002
	-4.815184e+001	9.490380e+001	-1.016780e+001	-1.156798e+002	-8.640204e-001	1.685616e+002	-2.736352e+001	8.867974e+001
7437500000	-2.758643e+001	-1.540586e+002	-7.017561e-001	1.352614e+002	-1.005388e+001	-1.202967e+002	-5.334941e+001	8.471125e+001
	-7.403692e-001	1.351186e+002	-2.687442e+001	-1.377031e+002	-4.106324e+001	1.060280e+002	-1.017820e+001	-1.173187e+002
	-1.011211e+001	-1.205410e+002	-4.025740e+001	1.031694e+002	-2.756336e+001	1.008460e+002	-8.786261e-001	1.667440e+002
	-4.995785e+001	1.068408e+002	-1.017416e+001	-1.166399e+002	-8.612765e-001	1.676135e+002	-2.700348e+001	9.690025e+001
7450000000	-2.780452e+001	-1.541230e+002	-7.074276e-001	1.343016e+002	-1.007891e+001	-1.213076e+002	-5.160712e+001	1.030933e+002
	-7.370093e-001	1.341542e+002	-2.595307e+001	-1.347264e+002	-4.138492e+001	9.662587e+001	-1.019092e+001	-1.181621e+002
	-1.012571e+001	-1.215084e+002	-4.069975e+001	9.273889e+001	-2.997865e+001	9.754336e+001	-8.938275e-001	1.659135e+002
	-4.846090e+001	1.179646e+002	-1.018995e+001	-1.176010e+002	-8.712293e-001	1.666921e+002	-2.679380e+001	1.027717e+002
7462500000	-2.745102e+001	-1.541298e+002	-6.976197e-001	1.333237e+002	-1.010695e+001	-1.222169e+002	-4.826525e+001	1.122328e+002
	-7.314180e-001	1.331913e+002	-2.559846e+001	-1.314808e+002	-4.229992e+001	8.915682e+001	-1.020264e+001	-1.190617e+002
	-1.014196e+001	-1.224194e+002	-4.188179e+001	8.418819e+001	-3.198256e+001	8.743088e+001	-9.015090e-001	1.650618e+002
	-4.779153e+001	1.144894e+002	-1.019989e+001	-1.185322e+002	-8.841986e-001	1.657289e+002	-2.712444e+001	1.049270e+002
7475000000	-2.688886e+001	-1.545708e+002	-6.961840e-001	1.323298e+002	-1.012361e+001	-1.230954e+002	-4.657266e+001	9.894684e+001
	-7.304216e-001	1.321713e+002	-2.594214e+001	-1.296815e+002	-4.384367e+001	8.369864e+001	-1.020447e+001	-1.199874e+002
	-1.015082e+001	-1.233443e+002	-4.345478e+001	8.278230e+001	-3.212052e+001	7.630028e+001	-9.019407e-001	1.641938e+002
	-4.696178e+001	9.689575e+001	-1.021677e+001	-1.195024e+002	-8.980755e-001	1.648538e+002	-2.823626e+001	1.011654e+002
7487500000	-2.649598e+001	-1.561468e+002	-6.922616e-001	1.313373e+002	-1.011970e+001	-1.239874e+002	-4.610008e+001	8.441689e+001
	-7.248387e-001	1.311715e+002	-2.682525e+001	-1.285253e+002	-4.456281e+001	9.042419e+001	-1.021273e+001	-1.209537e+002
	-1.015859e+001	-1.242828e+002	-4.461653e+001	8.671352e+001	-3.029808e+001	7.318815e+001	-8.973808e-001	1.633108e+002
	-4.622826e+001	7.515027e+001	-1.024104e+001	-1.204695e+002	-9.103156e-001	1.640138e+002	-2.983389e+001	9.234558e+001
7500000000	-2.633484e+001	-1.577519e+002	-6.888729e-001	1.303264e+002	-1.013149e+001	-1.248911e+002	-4.778903e+001	6.897440e+001
	-7.274695e-001	1.301742e+002	-2.799272e+001	-1.307185e+002	-4.431563e+001	9.769383e+001	-1.023352e+001	-1.219663e+002
	-1.016549e+001	-1.252532e+002	-4.429567e+001	9.786853e+001	-2.862403e+001	7.538814e+001	-8.975685e-001	1.623463e+002
	-4.702444e+001	6.255645e+001	-1.025457e+001	-1.212921e+002	-9.092448e-001	1.631887e+002	-3.096643e+001	8.324271e+001
7512500000	-2.663618e+001	-1.594157e+002	-6.955523e-001	1.293314e+002	-1.013996e+001	-1.258375e+002	-5.098291e+001	6.055384e+001
	-7.249870e-001	1.291867e+002	-2.871676e+001	-1.352216e+002	-4.243831e+001	9.951099e+001	-1.024971e+001	-1.229269e+002
	-1.017684e+001	-1.261978e+002	-4.257774e+001	1.033373e+002	-2.718839e+001	7.985874e+001	-8.985567e-001	1.614167e+002
	-4.908441e+001	6.874555e+001	-1.027072e+001	-1.221982e+002	-9.125873e-001	1.623989e+002	-3.096781e+001	7.805468e+001
7525000000	-2.725927e+001	-1.594643e+002	-6.903311e-001	1.283105e+002	-1.014372e+001	-1.268292e+002	-5.510412e+001	8.381340e+001
	-7.149003e-001	1.282462e+002	-2.850803e+001	-1.407023e+002	-4.118824e+001	9.460655e+001	-1.026507e+001	-1.238773e+002
	-1.018808e+001	-1.271058e+002	-4.170658e+001	1.005316e+002	-2.680117e+001	8.351464e+001	-9.040380e-001	1.604758e+002
	-5.029250e+001	8.962547e+001	-1.027609e+001	-1.230887e+002	-9.050867e-001	1.615528e+002	-2.969267e+001	7.898689e+001
7537500000	-2.783671e+001	-1.581922e+002	-6.906316e-001	1.273381e+002	-1.016030e+001	-1.278021e+002	-5.330039e+001	1.005332e+002
	-7.109372e-001	1.273041e+002	-2.773987e+001	-1.432867e+002	-4.068752e+001	8.813703e+001	-1.028684e+001	-1.247485e+002
	-1.019380e+001	-1.280315e+002	-4.071171e+001	9.498928e+001	-2.751248e+001	8.643961e+001	-9.104376e-001	1.596092e+002
	-4.848951e+001	1.084450e+002	-1.028563e+001	-1.240186e+002	-9.009056e-001	1.606569e+002	-2.830737e+001	8.237444e+001
7550000000	-2.809753e+001	-1.571125e+002	-6.857482e-001	1.262353e+002	-1.017354e+001	-1.288047e+002	-5.020285e+001	9.842292e+001
	-7.097315e-001	1.263492e+002	-2.670393e+001	-1.427406e+002	-4.136240e+001	8.235001e+001	-1.029921e+001	-1.256145e+002
	-1.020597e+001	-1.289687e+002	-4.103276e+001	8.673301e+001	-2.918401e+001	8.885007e+001	-9.126647e-001	1.587762e+002
	-4.722471e+001	1.059299e+002	-1.030015e+001	-1.249997e+002	-9.012264e-001	1.597666e+002	-2.711174e+001	8.578301e+001
7562500000	-2.786870e+001	-1.589109e+002	-6.869670e-001	1.252640e+002	-1.019167e+001	-1.297787e+002	-4.820262e+001	8.921477e+001
	-7.103369e-001	1.253780e+002	-2.600152e+001	-1.410295e+002	-4.284399e+001	7.821101e+001	-1.030880e+001	-1.264763e+002
	-1.021898e+001	-1.298883e+002	-4.207000e+001	7.689900e+001	-3.114827e+001	8.784554e+001	-9.137928e-001	1.579916e+002
	-4.736102e+001	9.469130e+001	-1.031359e+001	-1.260355e+002	-9.102561e-001	1.587604e+002	-2.669545e+001	8.873237e+001
7575000000	-2.738455e+001	-1.633424e+002	-6.857185e-001	1.242390e+002	-1.020267e+001	-1.307028e+002	-4.809923e+001	7.574671e+001
	-7.074692e-001	1.243700e+002	-2.597039e+001	-1.392485e+002	-4.457046e+001	8.476112e+001	-1.032225e+001	-1.273634e+002
	-1.022942e+001	-1.308017e+002	-4.332347e+001	7.314290e+001	-3.248496e+001	8.204249e+001	-9.164094e-001	1.571699e+002
	-4.757705e+001	7.741310e+001	-1.033109e+001	-1.269983e+002	-9.108495e-001	1.578214e+002	-2.725944e+001	9.114200e+001
7587500000	-2.693339e+001	-1.673663e+002	-6.879284e-001	1.232782e+002	-1.020993e+001	-1.316646e+002	-4.907642e+001	6.354178e+001
	-7.107757e-001	1.233733e+002	-2.661951e+001	-1.373872e+002	-4.441678e+001	9.018941e+001	-1.032981e+001	-1.283325e+002
	-1.024519e+001	-1.317207e+002	-4.435703e+001	7.895849e+001	-3.175980e+001	7.247840e+001	-9.179268e-001	1.563059e+002
	-4.869536e+001	5.949358e+001	-1.034841e+001	-1.278953e+002	-9.177586e-001	1.569072e+002	-2.868228e+001	9.400373e+001
7600000000	-2.671841e+001	-1.704214e+002	-6.827552e-001	1.223334e+002	-1.022456e+001	-1.325790e+002	-5.201571e+001	6.685049e+001
	-7.079803e-001	1.223533e+002	-2.766646e+001	-1.369325e+002	-4.320992e+001	9.545076e+001	-1.034063e+001	-1.292596e+002
	-1.024686e+001	-1.327241e+002	-4.394659e+001	8.934665e+001	-2.997575e+001	6.737594e+001	-9.127252e-001	1.554265e+002
	-4.922210e+001	5.551693e+001	-1.035274e+001	-1.287887e+002	-9.194828e-001	1.560757e+002	-3.036949e+001	9.670744e+001
7612500000	-2.692492e+001	-1.700690e+002	-6.836680e-001	1.214015e+002	-1.023356e+001	-1.334514e+002	-5.400592e+001	7.844609e+001
	-7.091158e-001	1.213486e+002	-2.865093e+001	-1.374910e+002	-4.146023e+001	9.361211e+001	-1.036710e+001	-1.302293e+002
	-1.025409e+001	-1.336387e+002	-4.195226e+001	9.212678e+001	-2.846383e+001	6.666274e+001	-9.094881e-001	1.545256e+002
	-5.038232e+001	6.502678e+001	-1.036754e+001	-1.296997e+002	-9.176457e-001	1.552475e+002	-3.169000e+001	9.620553e+001
7625000000	-2.720111e+001	-1.668621e+002	-6.840704e-001	1.204177e+002	-1.025111e+001	-1.344096e+002	-5.423724e+001	8.901018e+001
	-7.017229e-001	1.203083e+002	-2.884299e+001	-1.398837e+002	-4.039701e+001	8.607360e+001	-1.037806e+001	-1.311651e+002
	-1.026079e+001	-1.346480e+002	-4.046996e+001	8.814050e+001	-2.765596e+001	6.764095e+001	-9.038960e-001	1.535977e+002
	-4.897434e+001	8.475193e+001	-1.038137e+001	-1.305982e+002	-9.142905e-001	1.543747e+002	-3.208172e+001	8.997466e+001
7637500000	-2.752535e+001	-1.632930e+002	-6.825813e-001	1.193753e+002	-1.025630e+001	-1.353754e+002	-5.148418e+001	8.417473e+001
	-7.081273e-001	1.192990e+002	-2.816518e+001	-1.443682e+002	-4.019326e+001	7.892827e+001	-1.038757e+001	-1.320710e+002
	-1.028156e+001	-1.356249e+002	-3.996606e+001	8.096750e+001	-2.782253e+001	6.999580e+001	-9.022123e-001	1.527184e+002
	-4.739006e+001	9.071370e+001	-1.039391e+001	-1.314897e+002	-9.047197e-001	1.535280e+002	-3.079186e+001	8.102656e+001
7650000000	-2.770623e+001	-1.619455e+002	-6.881920e-001	1.183689e+002	-1.027540e+001	-1.363596e+002	-5.074297e+001	8.339212e+001
	-7.038921e-001	1.183119e+002	-2.715610e+001	-1.478747e+002	-4.087623e+001	7.192706e+001	-1.040815e+001	-1.329857e+002
	-1.028913e+001	-1.366013e+002	-4.060590e+001	7.326075e+001	-2.895424e+001	7.383622e+001	-9.074802e-001	1.518037e+002
	-4.751736e+001	9.816032e+001	-1.039568e+001	-1.323661e+002	-9.012910e-001	1.526166e+002	-2.929466e+001	7.538126e+001
7662500000	-2.799238e+001	-1.645693e+002	-6.909142e-001	1.174137e+002	-1.028078e+001	-1.372862e+002	-5.070982e+001	7.425293e+001
	-7.063277e-001	1.173265e+002	-2.644702e+001	-1.494708e+002	-4.288038e+001	6.881347e+001	-1.042681e+001	-1.339036e+002
	-1.030696e+001	-1.375062e+002	-4.228414e+001	6.724285e+001	-3.084292e+001	7.641747e+001	-9.075599e-001	1.509564e+002
	-4.749687e+001	9.233993e+001	-1.041498e+001	-1.333103e+002	-8.948892e-001	1.517307e+002	-2.839209e+001	7.287292e+001
7675000000	-2.813392e+001	-1.706541e+002	-6.876035e-001	1.164506e+002	-1.030039e+001	-1.382531e+002	-5.130675e+001	7.157759e+001
	-7.071647e-001	1.163670e+002	-2.648902e+001	-1.488535e+002	-4.504417e+001	6.681629e+001	-1.043936e+001	-1.347493e+002
	-1.030646e+001	-1.384692e+002	-4.410276e+001	6.504616e+001	-3.268596e+001	7.693126e+001	-9.030383e-001	1.500962e+002
	-4.945207e+001	7.978134e+001	-1.042394e+001	-1.342940e+002	-8.939465e-001	1.508190e+002	-2.801172e+001	7.503853e+001
7687500000	-2.803817e+001	-1.769725e+002	-6.876803e-001	1.154652e+002	-1.032473e+001	-1.392458e+002	-5.154861e+001	7.436802e+001
	-6.999890e-001	1.153917e+002	-2.711251e+001	-1.467397e+002	-4.555337e+001	7.534608e+001	-1.044630e+001	-1.356366e+002
	-1.031141e+001	-1.394548e+002	-4.494126e+001	7.571597e+001	-3.317877e+001	7.219145e+001	-9.014818e-001	1.492563e+002
	-5.072500e+001	6.502277e+001	-1.042493e+001	-1.352472e+002	-8.913266e-001	1.498712e+002	-2.837584e+001	7.967624e+001
7700000000	-2.775219e+001	1.795083e+002	-6.908955e-001	1.144752e+002	-1.034235e+001	-1.400871e+002	-5.117557e+001	7.290421e+001
	-6.979467e-001	1.143436e+002	-2.788295e+001	-1.425898e+002	-4.453107e+001	8.340825e+001	-1.045105e+001	-1.365312e+002
	-1.032415e+001	-1.404602e+002	-4.338233e+001	8.232042e+001	-3.203063e+001	6.625928e+001	-8.896737e-001	1.483812e+002
	-5.036259e+001	5.029814e+001	-1.044294e+001	-1.361942e+002	-8.855875e-001	1.489866e+002	-2.923354e+001	8.637742e+001
7712500000	-2.742321e+001	-1.799177e+002	-6.892759e-001	1.134210e+002	-1.034766e+001	-1.409441e+002	-5.125099e+001	6.931160e+001
	-6.970495e-001	1.133361e+002	-2.837471e+001	-1.408827e+002	-4.264038e+001	8.234173e+001	-1.045377e+001	-1.375048e+002
	-1.033624e+001	-1.413772e+002	-4.166306e+001	7.984509e+001	-3.053192e+001	6.074602e+001	-8.825979e-001	1.474514e+002
	-5.063431e+001	4.982645e+001	-1.045965e+001	-1.371504e+002	-8.865832e-001	1.481083e+002	-3.004477e+001	9.279738e+001
7725000000	-2.714601e+001	-1.766523e+002	-6.906487e-001	1.124167e+002	-1.035529e+001	-1.419420e+002	-5.263808e+001	7.215818e+001
	-7.002555e-001	1.123372e+002	-2.839054e+001	-1.431976e+002	-4.079287e+001	7.581952e+001	-1.046315e+001	-1.384871e+002
	-1.034849e+001	-1.423886e+002	-4.077251e+001	7.319232e+001	-2.920416e+001	5.752639e+001	-8.729622e-001	1.465284e+002
	-5.053866e+001	5.940260e+001	-1.047239e+001	-1.380771e+002	-8.878716e-001	1.472125e+002	-3.077530e+001	9.502332e+001
7737500000	-2.703531e+001	-1.728911e+002	-6.986285e-001	1.114580e+002	-1.036730e+001	-1.429334e+002	-5.253567e+001	7.254922e+001
	-7.075360e-001	1.113311e+002	-2.800593e+001	-1.483129e+002	-4.049472e+001	7.062788e+001	-1.049128e+001	-1.393980e+002
	-1.035766e+001	-1.433658e+002	-4.076646e+001	6.813764e+001	-2.899178e+001	5.837950e+001	-8.712887e-001	1.455910e+002
	-4.988908e+001	8.040096e+001	-1.048009e+001	-1.389999e+002	-8.813057e-001	1.463094e+002	-3.111339e+001	8.871138e+001
7750000000	-2.741351e+001	-1.694841e+002	-6.998994e-001	1.105067e+002	-1.038488e+001	-1.438729e+002	-5.288090e+001	7.278529e+001
	-7.091057e-001	1.103539e+002	-2.755709e+001	-1.550081e+002	-4.049557e+001	6.383683e+001	-1.051056e+001	-1.402774e+002
	-1.037633e+001	-1.443488e+002	-4.166316e+001	6.621195e+001	-2.949500e+001	5.923342e+001	-8.734269e-001	1.447155e+002
	-4.774721e+001	8.749993e+001	-1.048953e+001	-1.398488e+002	-8.732349e-001	1.454743e+002	-3.121157e+001	7.797932e+001
7762500000	-2.814335e+001	-1.691140e+002	-7.014255e-001	1.095482e+002	-1.039410e+001	-1.447824e+002	-5.205062e+001	7.146820e+001
	-7.061795e-001	1.093824e+002	-2.738857e+001	-1.577401e+002	-4.185720e+001	5.927628e+001	-1.052363e+001	-1.411796e+002
	-1.038672e+001	-1.452789e+002	-4.268796e+001	6.729763e+001	-3.092794e+001	6.204666e+001	-8.699357e-001	1.438387e+002
	-4.734462e+001	8.400159e+001	-1.048976e+001	-1.408874e+002	-8.598528e-001	1.445531e+002	-3.079946e+001	6.886091e+001
7775000000	-2.898936e+001	-1.725990e+002	-7.014797e-001	1.085510e+002	-1.041853e+001	-1.457873e+002	-5.202936e+001	6.192763e+001
	-7.049572e-001	1.084202e+002	-2.744994e+001	-1.565189e+002	-4.346981e+001	5.869058e+001	-1.053328e+001	-1.420909e+002
	-1.039652e+001	-1.462743e+002	-4.375334e+001	7.093736e+001	-3.244250e+001	6.518886e+001	-8.641512e-001	1.429999e+002
	-4.819012e+001	7.429811e+001	-1.049654e+001	-1.418900e+002	-8.528140e-001	1.435934e+002	-3.052974e+001	6.515202e+001
7787500000	-2.957664e+001	1.792333e+002	-7.019028e-001	1.075549e+002	-1.043952e+001	-1.467528e+002	-5.241712e+001	5.600695e+001
	-7.119273e-001	1.073908e+002	-2.778315e+001	-1.516576e+002	-4.480808e+001	6.611973e+001	-1.053748e+001	-1.429329e+002
	-1.041623e+001	-1.472723e+002	-4.302876e+001	7.056102e+001	-3.349949e+001	6.462014e+001	-8.542411e-001	1.420937e+002
	-5.108321e+001	5.697256e+001	-1.051288e+001	-1.428479e+002	-8.463690e-001	1.426325e+002	-3.025894e+001	6.892321e+001
7800000000	-2.935821e+001	1.698966e+002	-7.043259e-001	1.065507e+002	-1.045580e+001	-1.476765e+002	-5.492737e+001	5.688726e+001
	-7.094196e-001	1.063847e+002	-2.798573e+001	-1.467536e+002	-4.446203e+001	6.833452e+001	-1.054216e+001	-1.438500e+002
	-1.042840e+001	-1.482606e+002	-4.270473e+001	6.662109e+001	-3.318234e+001	5.966795e+001	-8.466781e-001	1.411805e+002
	-5.376311e+001	3.405243e+001	-1.052840e+001	-1.438011e+002	-8.455843e-001	1.416891e+002	-2.994971e+001	7.744683e+001
7812500000	-2.853812e+001	1.658058e+002	-7.081245e-001	1.055768e+002	-1.046417e+001	-1.485938e+002	-5.712434e+001	7.022701e+001
	-7.139522e-001	1.053574e+002	-2.809400e+001	-1.452221e+002	-4.287348e+001	6.865282e+001	-1.054792e+001	-1.448510e+002
	-1.044261e+001	-1.492430e+002	-4.193320e+001	6.381186e+001	-3.189065e+001	5.260727e+001	-8.412824e-001	1.402473e+002
	-5.354729e+001	2.913567e+001	-1.053957e+001	-1.447241e+002	-8.484791e-001	1.407364e+002	-2.963258e+001	8.434930e+001
7825000000	-2.781408e+001	1.667664e+002	-7.080500e-001	1.045807e+002	-1.047815e+001	-1.495392e+002	-5.474075e+001	9.042235e+001
	-7.188690e-001	1.043659e+002	-2.812617e+001	-1.484930e+002	-4.175354e+001	6.260296e+001	-1.057515e+001	-1.457917e+002
	-1.046111e+001	-1.502155e+002	-4.162335e+001	5.914935e+001	-3.048493e+001	4.746185e+001	-8.370742e-001	1.393070e+002
	-5.159781e+001	5.659095e+001	-1.056072e+001	-1.456994e+002	-8.483061e-001	1.398615e+002	-2.958653e+001	8.712974e+001
7837500000	-2.717153e+001	1.715715e+002	-7.124607e-001	1.036145e+002	-1.048750e+001	-1.504726e+002	-5.216922e+001	9.420395e+001
	-7.199867e-001	1.034000e+002	-2.807211e+001	-1.541127e+002	-4.122633e+001	5.810991e+001	-1.058560e+001	-1.467482e+002
	-1.047882e+001	-1.511716e+002	-4.132827e+001	5.798898e+001	-3.014043e+001	4.577016e+001	-8.323974e-001	1.383803e+002
	-4.959275e+001	6.530526e+001	-1.056256e+001	-1.466331e+002	-8.382142e-001	1.389699e+002	-3.001764e+001	8.568629e+001
7850000000	-2.696540e+001	1.772308e+002	-7.140641e-001	1.026541e+002	-1.050644e+001	-1.514039e+002	-5.131545e+001	7.520585e+001
	-7.214855e-001	1.024468e+002	-2.805621e+001	-1.601051e+002	-4.121085e+001	5.461662e+001	-1.060412e+001	-1.476685e+002
	-1.048497e+001	-1.520912e+002	-4.161926e+001	5.884696e+001	-3.034419e+001	4.695955e+001	-8.286615e-001	1.374518e+002
	-4.757544e+001	6.863633e+001	-1.057791e+001	-1.475936e+002	-8.323794e-001	1.380277e+002	-3.112579e+001	8.065747e+001
7862500000	-2.729740e+001	-1.783635e+002	-7.168273e-001	1.017152e+002	-1.052177e+001	-1.523709e+002	-5.073361e+001	5.180057e+001
	-7.217831e-001	1.015035e+002	-2.806043e+001	-1.611006e+002	-4.206991e+001	5.262207e+001	-1.061130e+001	-1.485952e+002
	-1.050090e+001	-1.530232e+002	-4.193530e+001	6.118555e+001	-3.159314e+001	4.875541e+001	-8.263121e-001	1.365331e+002
	-4.746119e+001	6.939134e+001	-1.058879e+001	-1.485430e+002	-8.266799e-001	1.371072e+002	-3.211849e+001	7.252991e+001
7875000000	-2.830430e+001	-1.777589e+002	-7.195101e-001	1.007194e+002	-1.053874e+001	-1.533206e+002	-5.201570e+001	3.128114e+001
	-7.285665e-001	1.005389e+002	-2.801396e+001	-1.591044e+002	-4.240478e+001	5.193279e+001	-1.062730e+001	-1.495313e+002
	-1.052112e+001	-1.540105e+002	-4.280201e+001	6.066173e+001	-3.289571e+001	5.194662e+001	-8.239491e-001	1.356078e+002
	-5.023118e+001	6.696353e+001	-1.059686e+001	-1.495130e+002	-8.169291e-001	1.361748e+002	-3.284751e+001	6.710054e+001
7887500000	-2.963830e+001	1.778375e+002	-7.206824e-001	9.977391e+001	-1.055755e+001	-1.542647e+002	-5.498110e+001	2.385282e+001
	-7.285376e-001	9.954200e+001	-2.796286e+001	-1.546667e+002	-4.250498e+001	5.167916e+001	-1.064411e+001	-1.504365e+002
	-1.053689e+001	-1.549394e+002	-4.320460e+001	6.045161e+001	-3.353591e+001	5.257656e+001	-8.236228e-001	1.347298e+002
	-5.444425e+001	6.773977e+001	-1.061184e+001	-1.504910e+002	-8.168174e-001	1.352339e+002	-3.267726e+001	6.865230e+001
7900000000	-3.063204e+001	1.682780e+002	-7.270692e-001	9.877763e+001	-1.057653e+001	-1.552363e+002	-5.986400e+001	4.392401e+001
	-7.335067e-001	9.861730e+001	-2.788580e+001	-1.512080e+002	-4.252325e+001	4.854630e+001	-1.065780e+001	-1.513208e+002
	-1.055659e+001	-1.559495e+002	-4.296274e+001	5.785534e+001	-3.338588e+001	4.647810e+001	-8.172557e-001	1.338272e+002
	-5.770662e+001	7.295141e+001	-1.062576e+001	-1.514465e+002	-8.088953e-001	1.342949e+002	-3.184896e+001	7.278306e+001
7912500000	-3.033429e+001	1.588845e+002	-7.323730e-001	9.780522e+001	-1.059664e+001	-1.561785e+002	-5.543671e+001	9.515576e+001
	-7.356193e-001	9.764318e+001	-2.785437e+001	-1.505080e+002	-4.292373e+001	4.424032e+001	-1.066175e+001	-1.522444e+002
	-1.056691e+001	-1.569005e+002	-4.247259e+001	5.181743e+001	-3.243925e+001	3.852388e+001	-8.081321e-001	1.329222e+002
	-5.688162e+001	6.681786e+001	-1.064209e+001	-1.523752e+002	-8.052202e-001	1.333921e+002	-3.056291e+001	7.774199e+001
7925000000	-2.907296e+001	1.561456e+002	-7.311492e-001	9.682173e+001	-1.061560e+001	-1.570924e+002	-5.233474e+001	8.487374e+001
	-7.356320e-001	9.666375e+001	-2.809029e+001	-1.544638e+002	-4.289887e+001	4.420201e+001	-1.066934e+001	-1.531924e+002
	-1.059485e+001	-1.578204e+002	-4.174625e+001	4.615948e+001	-3.112952e+001	3.358585e+001	-7.979403e-001	1.319572e+002
	-5.182906e+001	6.195933e+001	-1.065795e+001	-1.533496e+002	-8.026982e-001	1.323945e+002	-2.981697e+001	7.876046e+001
7937500000	-2.775423e+001	1.583172e+002	-7.333834e-001	9.585514e+001	-1.062603e+001	-1.579942e+002	-5.086718e+001	7.148669e+001
	-7.379678e-001	9.567825e+001	-2.843692e+001	-1.604542e+002	-4.288603e+001	4.790862e+001	-1.068547e+001	-1.542034e+002
	-1.061082e+001	-1.587673e+002	-4.167721e+001	4.333325e+001	-3.058326e+001	3.167170e+001	-7.973980e-001	1.309801e+002
	-4.971721e+001	5.227151e+001	-1.067467e+001	-1.542556e+002	-8.047690e-001	1.314916e+002	-2.987034e+001	7.794090e+001
7950000000	-2.695375e+001	1.628714e+002	-7.344445e-001	9.492454e+001	-1.063375e+001	-1.589675e+002	-5.247500e+001	6.335163e+001
	-7.440467e-001	9.473711e+001	-2.864169e+001	-1.660460e+002	-4.291734e+001	5.476816e+001	-1.070381e+001	-1.551948e+002
	-1.062912e+001	-1.596965e+002	-4.213068e+001	4.263864e+001	-3.072761e+001	3.401790e+001	-7.942014e-001	1.300082e+002
	-4.914418e+001	5.427831e+001	-1.068819e+001	-1.552055e+002	-8.034316e-001	1.305492e+002	-3.067397e+001	7.688148e+001
7962500000	-2.698379e+001	1.691622e+002	-7.370816e-001	9.397426e+001	-1.065510e+001	-1.599358e+002	-5.475520e+001	5.013250e+001
	-7.418765e-001	9.379250e+001	-2.873486e+001	-1.691815e+002	-4.205488e+001	5.643321e+001	-1.072217e+001	-1.560563e+002
	-1.064633e+001	-1.606336e+002	-4.298831e+001	4.625087e+001	-3.132159e+001	3.981663e+001	-7.944089e-001	1.290582e+002
	-4.999210e+001	5.729717e+001	-1.069806e+001	-1.561238e+002	-8.016880e-001	1.296705e+002	-3.183448e+001	7.313261e+001
7975000000	-2.784136e+001	1.748982e+002	-7.370547e-001	9.302571e+001	-1.067413e+001	-1.608529e+002	-5.592962e+001	6.132691e+001
	-7.454886e-001	9.286549e+001	-2.877860e+001	-1.677895e+002	-4.149526e+001	4.939119e+001	-1.073750e+001	-1.569672e+002
	-1.066833e+001	-1.615271e+002	-4.351862e+001	5.262447e+001	-3.226410e+001	4.518613e+001	-8.030546e-001	1.281735e+002
	-5.084499e+001	6.808611e+001	-1.071046e+001	-1.571018e+002	-7.963295e-001	1.287531e+002	-3.296585e+001	6.941189e+001
7987500000	-2.933783e+001	1.793429e+002	-7.394415e-001	9.206784e+001	-1.068235e+001	-1.617991e+002	-5.591430e+001	7.532244e+001
	-7.426131e-001	9.195242e+001	-2.860853e+001	-1.629002e+002	-4.198431e+001	3.852795e+001	-1.075265e+001	-1.579403e+002
	-1.067179e+001	-1.624456e+002	-4.329682e+001	5.635011e+001	-3.343373e+001	4.863293e+001	-8.022921e-001	1.272989e+002
	-5.229073e+001	6.954288e+001	-1.073013e+001	-1.580832e+002	-7.887294e-001	1.278164e+002	-3.332238e+001	6.641615e+001
8000000000	-3.100632e+001	1.781586e+002	-7.374688e-001	9.107743e+001	-1.070309e+001	-1.627905e+002	-5.449279e+001	8.004870e+001
	-7.431561e-001	9.099410e+001	-2.837939e+001	-1.592319e+002	-4.352885e+001	2.887122e+001	-1.076422e+001	-1.587373e+002
	-1.068513e+001	-1.633673e+002	-4.299927e+001	5.171344e+001	-3.456787e+001	4.699083e+001	-7.938995e-001	1.264527e+002
	-5.462076e+001	7.168788e+001	-1.074088e+001	-1.590453e+002	-7.843820e-001	1.268808e+002	-3.278968e+001	6.514040e+001
