! SIEMENS Small Signal Semiconductors
! BA597
! Si PIN Diode in SOD323
! VR = 10 V     
! S-Parameters:                                       April  1996
# GHz  S  MA  R  50
!  f          S11
! GHz     MAG     ANG
 0.010  0.99915   -0.1  
 0.020  0.99908   -0.2  
 0.030  0.99780   -0.4  
 0.050  0.99667   -0.5  
 0.100  0.99615   -0.9  
 0.150  0.99549   -1.3  
 0.200  0.99520   -1.7  
 0.250  0.99446   -2.1  
 0.300  0.99363   -2.5  
 0.400  0.99288   -3.3  
 0.500  0.99229   -4.0  
 0.600  0.99147   -4.8  
 0.700  0.99101   -5.5  
 0.800  0.99022   -6.3  
 0.900  0.98927   -7.1  
 1.000  0.98908   -7.9  
 1.100  0.98813   -8.6  
 1.200  0.98818   -9.4  
 1.300  0.98763  -10.2  
 1.400  0.98699  -10.9  
 1.500  0.98654  -11.7  
 1.600  0.98588  -12.6  
 1.700  0.98595  -13.4  
 1.800  0.98498  -14.2  
 1.900  0.98497  -15.0  
 2.000  0.98401  -15.8  
 2.200  0.98400  -17.5  
 2.400  0.98359  -19.2  
 2.600  0.98252  -20.9  
 2.800  0.98080  -22.7  
 3.000  0.98019  -24.6  
