! SIEMENS Discrete & RF Semiconductors
! BFP405
! Si NPN RF SIEGET Grounded Emitter Transistor in SOT343
! VCE = 1 V     IC = 10 mA     
! Common Emitter S-Parameters:                     February  1998
# GHz  S  MA  R  50
!  f         S11            S21            S12            S22
! GHz     MAG   ANG      MAG   ANG      MAG   ANG      MAG   ANG
 0.010  0.7389   -0.6  21.100  179.4  0.0007  104.4  0.9620    0.1
 0.020  0.7418   -1.5  20.851  178.7  0.0007   94.7  0.9653   -0.3
 0.050  0.7374   -3.8  21.033  176.1  0.0024   81.1  0.9701   -1.6
 0.100  0.7334   -7.9  20.926  172.9  0.0040   91.9  0.9709   -3.8
 0.150  0.7288  -12.2  20.898  169.1  0.0062   85.0  0.9656   -5.9
 0.200  0.7206  -15.7  20.501  165.2  0.0076   82.1  0.9599   -7.9
 0.250  0.7108  -19.9  20.310  162.0  0.0094   82.2  0.9515   -9.9
 0.300  0.7023  -23.6  20.146  158.5  0.0113   80.4  0.9422  -11.7
 0.400  0.6728  -30.9  19.422  151.4  0.0148   75.8  0.9178  -15.4
 0.500  0.6420  -37.3  18.422  144.8  0.0180   73.0  0.8883  -18.6
 0.600  0.6102  -44.2  17.727  138.8  0.0206   71.2  0.8607  -21.4
 0.700  0.5774  -50.5  16.732  133.6  0.0230   67.7  0.8308  -24.0
 0.800  0.5457  -56.5  15.891  128.4  0.0260   66.8  0.8006  -26.5
 0.900  0.5125  -61.6  15.074  123.7  0.0279   64.7  0.7681  -28.3
 1.000  0.4868  -67.4  14.305  119.6  0.0302   63.6  0.7443  -29.9
 1.100  0.4535  -72.8  13.530  115.4  0.0320   62.2  0.7210  -31.7
 1.200  0.4281  -77.7  12.765  111.6  0.0342   61.2  0.6948  -33.5
 1.300  0.4037  -82.7  12.085  108.3  0.0364   60.6  0.6689  -34.6
 1.400  0.3812  -87.0  11.454  105.0  0.0378   59.1  0.6513  -35.4
 1.500  0.3589  -91.4  10.930  101.5  0.0396   59.0  0.6361  -36.8
 1.600  0.3416  -97.2  10.441   98.7  0.0414   58.5  0.6163  -38.3
 1.700  0.3290 -101.2   9.939   96.0  0.0435   57.8  0.5950  -38.7
 1.800  0.3088 -106.1   9.488   93.4  0.0449   57.3  0.5839  -39.1
 1.900  0.2970 -111.0   9.072   90.8  0.0469   56.5  0.5740  -40.3
 2.000  0.2858 -114.9   8.718   88.6  0.0486   56.4  0.5583  -41.7
 2.200  0.2607 -123.3   8.035   84.2  0.0527   55.7  0.5330  -42.2
 2.400  0.2411 -133.8   7.443   79.9  0.0561   54.6  0.5126  -44.8
 2.600  0.2309 -143.3   6.904   75.8  0.0599   53.7  0.4916  -44.8
 2.800  0.2208 -153.2   6.471   72.0  0.0633   52.3  0.4765  -48.0
 3.000  0.2170 -162.5   6.070   68.2  0.0675   51.3  0.4555  -47.8
 3.500  0.2172  172.4   5.251   59.6  0.0768   47.9  0.4233  -53.1
 4.000  0.2353  154.9   4.614   51.6  0.0867   44.8  0.3779  -59.9
 4.500  0.2728  139.0   4.112   44.1  0.0972   40.8  0.3270  -64.7
 5.000  0.3082  129.0   3.713   36.6  0.1058   36.5  0.3021  -66.8
 5.500  0.3330  118.4   3.339   29.0  0.1117   32.6  0.2813  -73.2
 6.000  0.3396  114.6   3.077   23.0  0.1239   29.8  0.2590  -79.6

